Unnamed: 0,Steps,Time [s],[A] Directional Deformation Flexible (Min) [m],[B] Directional Deformation Flexible (Max) [m],[C] Directional Deformation SiC (Min) [m],[D] Directional Deformation SiC (Max) [m],[E] Directional Deformation Asperity (Min) [m],[F] Directional Deformation Asperity (Max) [m],[G] Directional Velocity Flexible (Min) [m/s],[H] Directional Velocity Flexible (Max) [m/s],[I] Directional Velocity SiC (Min) [m/s],[J] Directional Velocity SiC (Max) [m/s],[K] Directional Velocity Asperity (Min) [m/s],[L] Directional Velocity Asperity (Max) [m/s],[M] Directional Acceleration Flexible (Min) [m/s²],[N] Directional Acceleration Flexible (Max) [m/s²],[O] Directional Acceleration SiC (Min) [m/s²],[P] Directional Acceleration SiC (Max) [m/s²],[Q] Directional Acceleration Asperity (Min) [m/s²],[R] Directional Acceleration Asperity (Max) [m/s²],[S] Equivalent Elastic Strain Flexible (Min) [m/m],[T] Equivalent Elastic Strain Flexible (Max) [m/m],[U] Equivalent Elastic Strain SiC (Min) [m/m],[V] Equivalent Elastic Strain SiC (Max) [m/m],[W] Equivalent Elastic Strain Asperity (Min) [m/m],[X] Equivalent Elastic Strain Asperity (Max) [m/m],[Y] Equivalent Stress Flexible (Min) [Pa],[Z] Equivalent Stress Flexible (Max) [Pa],[AA] Equivalent Stress SiC (Min) [Pa],[AB] Equivalent Stress SiC (Max) [Pa],[AC] Equivalent Stress Asperity (Min) [Pa],[AD] Equivalent Stress Asperity (Max) [Pa],[AE] Directional Deformation 4 (Min) [m],[AF] Directional Deformation 4 (Max) [m],[AG] Directional Velocity 4 (Min) [m/s],[AH] Directional Velocity 4 (Max) [m/s],[AI] Directional Acceleration (Min) [m/s²],[AJ] Directional Acceleration (Max) [m/s²],[AK] Equivalent Elastic Strain 4 (Min) [m/m],[AL] Equivalent Elastic Strain 4 (Max) [m/m],[AM] Equivalent Stress 4 (Min) [Pa],[AN] Equivalent Stress 4 (Max) [Pa]
1,1,1.18E-38,0,0,0,0,0,0,-5,0,-5,-5,0,0,0,0,0,0,0,0,0,0,0,0,0,0,0,0,0,0,0,0,0,0,-5,0,0,0,0,0,0,0
2,1,1.26E-07,-6.31E-07,0,-6.31E-07,-6.31E-07,0,0,-5,0,-5,-5,0,0,0,0,0,0,0,0,0,0,0,0,0,0,0,0,0,0,0,0,-6.31E-07,0,-5,0,0,0,0,0,0,0
3,1,2.54E-07,-1.27E-06,0,-1.27E-06,-1.27E-06,0,0,-5,0,-5,-5,0,0,0,0,0,0,0,0,0,0,0,0,0,0,0,0,0,0,0,0,-1.27E-06,0,-5,0,0,0,0,0,0,0
4,1,3.83E-07,-1.91E-06,3.25E-09,-1.91E-06,-1.88E-06,-5.26E-07,3.25E-09,-5.2846,4.92E-03,-5.2846,-4.6661,-4.5151,4.92E-03,-5.97E+07,8.88E+07,-5.97E+07,8.88E+07,-3.67E+07,2.16E+07,0,3.21E-03,0,1.59E-04,0,3.21E-03,0,1.87E+08,0,3.38E+07,0,1.87E+08,-1.91E-06,3.25E-09,-5.2846,4.92E-03,-5.97E+07,8.88E+07,0,3.21E-03,0,1.87E+08
5,1,5.11E-07,-2.56E-06,3.47E-10,-2.56E-06,-2.48E-06,-1.07E-06,3.47E-10,-5.0039,4.08E-03,-5.0039,-4.617,-4.2494,4.08E-03,-3.57E+07,3.52E+07,-3.57E+07,3.52E+07,-1.22E+07,2.36E+07,0,6.32E-03,6.04E-10,3.33E-04,0,6.32E-03,0,3.67E+08,116.99,7.06E+07,0,3.67E+08,-2.56E-06,3.47E-10,-5.0039,4.08E-03,-3.57E+07,3.52E+07,0,6.32E-03,0,3.67E+08
6,1,6.40E-07,-3.20E-06,6.40E-10,-3.20E-06,-3.09E-06,-1.62E-06,6.40E-10,-5.0378,6.83E-03,-5.0378,-4.6023,-4.1654,6.83E-03,-2.66E+07,3.97E+07,-2.66E+07,3.97E+07,-5.15E+06,9.47E+06,0,9.40E-03,1.21E-08,4.96E-04,0,9.40E-03,0,5.47E+08,5257.9,1.06E+08,0,5.47E+08,-3.20E-06,6.40E-10,-5.0378,6.83E-03,-2.66E+07,3.97E+07,0,9.40E-03,0,5.47E+08
7,1,7.68E-07,-3.84E-06,1.18E-09,-3.84E-06,-3.70E-06,-2.18E-06,1.18E-09,-5.0178,1.02E-02,-5.0178,-4.8141,-4.7128,1.02E-02,-3.20E+07,2.26E+07,-3.20E+07,2.26E+07,-9.83E+06,1.85E+07,0,1.17E-02,6.05E-08,6.23E-04,0,1.17E-02,0,6.72E+08,24911,1.31E+08,0,6.72E+08,-3.84E-06,1.18E-09,-5.0178,1.02E-02,-3.20E+07,2.26E+07,0,1.17E-02,0,6.72E+08
8,1,8.96E-07,-4.48E-06,2.12E-09,-4.48E-06,-4.33E-06,-2.80E-06,2.12E-09,-5.0577,0.22256,-5.0577,-4.9023,-4.8013,0.22256,-1.43E+07,2.11E+07,-1.43E+07,2.11E+07,-8.85E+06,1.03E+07,0,1.19E-02,1.62E-07,6.68E-04,0,1.19E-02,0,7.14E+08,69526,1.41E+08,0,7.14E+08,-4.48E-06,2.12E-09,-5.0577,0.22256,-1.43E+07,2.11E+07,0,1.19E-02,0,7.14E+08
9,1,1.02E-06,-5.12E-06,2.57E-09,-5.12E-06,-4.96E-06,-3.41E-06,2.57E-09,-5.075,0.34701,-5.075,-4.8962,-4.7724,0.34701,-1.95E+07,1.58E+07,-1.95E+07,1.58E+07,-1.14E+07,9.52E+06,0,1.20E-02,1.81E-07,7.12E-04,0,1.20E-02,0,7.43E+08,59515,1.50E+08,0,7.43E+08,-5.12E-06,2.57E-09,-5.075,0.34701,-1.95E+07,1.58E+07,0,1.20E-02,0,7.43E+08
10,1,1.15E-06,-5.76E-06,2.11E-09,-5.76E-06,-5.58E-06,-4.03E-06,2.11E-09,-5.0243,0.65341,-5.0243,-4.6057,-5.0235,0.65341,-9.75E+07,9.27E+07,-9.75E+07,4.95E+07,-5.53E+07,9.27E+07,0,1.21E-02,1.40E-07,7.26E-04,0,1.21E-02,0,7.78E+08,30220,1.64E+08,0,7.78E+08,-5.76E-06,2.11E-09,-5.0243,0.65341,-9.75E+07,9.27E+07,0,1.21E-02,0,7.78E+08
11,1,1.28E-06,-6.40E-06,7.08E-10,-6.40E-06,-6.15E-06,-4.67E-06,7.08E-10,-4.9917,0.23938,-4.9917,-4.3864,-4.8797,0.23938,-4.34E+07,4.35E+07,-3.35E+07,4.35E+07,-4.34E+07,3.29E+07,0,1.21E-02,1.58E-07,8.55E-04,0,1.21E-02,0,8.06E+08,65219,2.24E+08,0,8.06E+08,-6.40E-06,7.08E-10,-4.9917,0.23938,-4.34E+07,4.35E+07,0,1.21E-02,0,8.06E+08
12,1,1.41E-06,-7.03E-06,2.57E-09,-7.03E-06,-6.72E-06,-5.31E-06,2.57E-09,-4.9773,4.46E-02,-4.9773,-4.3748,-4.9194,4.46E-02,-2.64E+07,1.93E+07,-2.64E+07,1.65E+07,-2.20E+07,1.93E+07,0,1.22E-02,5.26E-08,1.11E-03,0,1.22E-02,0,8.35E+08,18519,2.88E+08,0,8.35E+08,-7.03E-06,2.57E-09,-4.9773,4.46E-02,-2.64E+07,1.93E+07,0,1.22E-02,0,8.35E+08
13,1,1.54E-06,-7.67E-06,3.01E-09,-7.67E-06,-7.29E-06,-5.94E-06,3.01E-09,-4.9699,2.76E-02,-4.953,-4.4266,-4.9699,2.76E-02,-2.06E+07,1.43E+07,-2.06E+07,1.43E+07,-1.58E+07,9.29E+06,0,1.22E-02,3.46E-08,1.37E-03,0,1.22E-02,0,8.54E+08,11075,3.52E+08,0,8.54E+08,-7.67E-06,3.01E-09,-4.9699,2.76E-02,-2.06E+07,1.43E+07,0,1.22E-02,0,8.54E+08
14,1,1.67E-06,-8.30E-06,4.18E-09,-8.30E-06,-7.86E-06,-6.58E-06,4.18E-09,-4.9527,3.87E-02,-4.9527,-4.4512,-4.8691,3.87E-02,-1.56E+07,1.62E+07,-1.56E+07,1.60E+07,-1.20E+07,1.62E+07,0,1.23E-02,4.25E-08,1.64E-03,0,1.23E-02,0,8.67E+08,13826,4.11E+08,0,8.67E+08,-8.30E-06,4.18E-09,-4.9527,3.87E-02,-1.56E+07,1.62E+07,0,1.23E-02,0,8.67E+08
15,1,1.80E-06,-8.94E-06,5.99E-09,-8.94E-06,-8.43E-06,-7.20E-06,5.99E-09,-5.7341,3.27E-02,-5.2273,-4.0945,-5.7341,3.27E-02,-6.21E+07,2.28E+08,-6.21E+07,2.28E+08,-4.24E+07,3.28E+07,0,1.23E-02,2.11E-07,1.92E-03,0,1.23E-02,0,8.90E+08,57692,4.81E+08,0,8.90E+08,-8.94E-06,5.99E-09,-5.7341,3.27E-02,-6.21E+07,2.28E+08,0,1.23E-02,0,8.90E+08
16,1,1.92E-06,-9.57E-06,6.43E-09,-9.57E-06,-8.99E-06,-7.80E-06,6.43E-09,-4.9754,5.69E-02,-4.9754,-4.1932,-4.3727,5.69E-02,-3.12E+07,2.45E+07,-3.12E+07,2.45E+07,-1.19E+07,1.70E+07,0,1.23E-02,3.47E-07,2.10E-03,0,1.23E-02,0,9.21E+08,1.28E+05,5.42E+08,0,9.21E+08,-9.57E-06,6.43E-09,-4.9754,5.69E-02,-3.12E+07,2.45E+07,0,1.23E-02,0,9.21E+08
17,1,2.05E-06,-1.02E-05,3.49E-09,-1.02E-05,-9.55E-06,-8.40E-06,3.49E-09,-4.8933,0.10647,-4.8933,-4.221,-4.5069,0.10647,-2.36E+07,1.86E+07,-2.36E+07,1.86E+07,-1.02E+07,1.11E+07,0,1.24E-02,4.14E-07,2.30E-03,0,1.24E-02,0,9.60E+08,1.58E+05,6.04E+08,0,9.60E+08,-1.02E-05,3.49E-09,-4.8933,0.10647,-2.36E+07,1.86E+07,0,1.24E-02,0,9.60E+08
18,1,2.18E-06,-1.08E-05,2.20E-09,-1.08E-05,-1.01E-05,-8.99E-06,2.20E-09,-4.8685,9.51E-02,-4.8685,-4.3507,-4.6219,9.51E-02,-1.51E+07,1.76E+07,-1.51E+07,1.69E+07,-1.44E+07,1.76E+07,0,1.24E-02,4.46E-07,2.48E-03,0,1.24E-02,0,1.01E+09,1.93E+05,6.63E+08,0,1.01E+09,-1.08E-05,2.20E-09,-4.8685,9.51E-02,-1.51E+07,1.76E+07,0,1.24E-02,0,1.01E+09
19,1,2.31E-06,-1.14E-05,3.70E-09,-1.14E-05,-1.07E-05,-9.66E-06,3.70E-09,-6.7465,6.91E-02,-4.8545,-4.4452,-6.7465,6.91E-02,-1.63E+07,2.19E+07,-1.30E+07,1.17E+07,-1.63E+07,2.19E+07,0,1.24E-02,5.62E-07,2.62E-03,0,1.24E-02,0,1.05E+09,2.48E+05,7.08E+08,0,1.05E+09,-1.14E-05,3.70E-09,-6.7465,6.91E-02,-1.63E+07,2.19E+07,0,1.24E-02,0,1.05E+09
20,1,2.44E-06,-1.21E-05,5.30E-09,-1.21E-05,-1.13E-05,-1.04E-05,5.30E-09,-5.4393,4.57E-02,-4.8247,-4.4244,-5.4393,4.57E-02,-1.97E+07,2.71E+07,-1.63E+07,1.97E+07,-1.97E+07,2.71E+07,0,1.25E-02,5.00E-07,2.70E-03,0,1.25E-02,0,1.07E+09,2.13E+05,7.43E+08,0,1.07E+09,-1.21E-05,5.30E-09,-5.4393,4.57E-02,-1.97E+07,2.71E+07,0,1.25E-02,0,1.07E+09
21,1,2.57E-06,-1.27E-05,7.77E-09,-1.27E-05,-1.18E-05,-1.11E-05,7.77E-09,-5.5091,3.74E-02,-4.7913,-4.5543,-5.5091,3.74E-02,-1.20E+07,1.50E+07,-1.04E+07,1.39E+07,-1.20E+07,1.50E+07,0,1.25E-02,3.95E-07,2.76E-03,0,1.25E-02,0,1.09E+09,84276,7.69E+08,0,1.09E+09,-1.27E-05,7.77E-09,-5.5091,3.74E-02,-1.20E+07,1.50E+07,0,1.25E-02,0,1.09E+09
22,1,2.69E-06,-1.33E-05,7.87E-09,-1.33E-05,-1.24E-05,-1.18E-05,7.87E-09,-5.6776,0.35633,-4.7525,-4.4882,-5.6776,0.35633,-1.63E+07,1.24E+07,-1.16E+07,9.88E+06,-1.63E+07,1.24E+07,0,1.25E-02,4.46E-07,2.81E-03,0,1.25E-02,0,1.10E+09,1.25E+05,7.91E+08,0,1.10E+09,-1.33E-05,7.87E-09,-5.6776,0.35633,-1.63E+07,1.24E+07,0,1.25E-02,0,1.10E+09
23,1,2.82E-06,-1.39E-05,6.04E-09,-1.39E-05,-1.30E-05,-1.24E-05,6.04E-09,-4.8938,9.64E-02,-4.8938,-4.1592,-4.5096,9.64E-02,-1.02E+08,8.09E+07,-1.02E+08,7.47E+07,-6.25E+07,8.09E+07,0,1.26E-02,6.20E-07,2.85E-03,0,1.26E-02,0,1.14E+09,2.55E+05,7.75E+08,0,1.14E+09,-1.39E-05,6.04E-09,-4.8938,9.64E-02,-1.02E+08,8.09E+07,0,1.26E-02,0,1.14E+09
24,1,2.95E-06,-1.45E-05,5.60E-09,-1.45E-05,-1.35E-05,-1.30E-05,5.60E-09,-5.4092,0.14464,-4.8344,-4.1298,-5.4092,0.14464,-5.53E+07,4.13E+07,-4.46E+07,3.99E+07,-5.53E+07,4.13E+07,0,1.26E-02,6.25E-07,2.79E-03,0,1.26E-02,0,1.17E+09,2.67E+05,8.07E+08,0,1.17E+09,-1.45E-05,5.60E-09,-5.4092,0.14464,-5.53E+07,4.13E+07,0,1.26E-02,0,1.17E+09
25,1,3.08E-06,-1.51E-05,4.11E-09,-1.51E-05,-1.41E-05,-1.37E-05,4.11E-09,-5.3535,9.57E-02,-4.6645,-4.0172,-5.3535,9.57E-02,-3.19E+07,2.12E+07,-3.19E+07,1.93E+07,-2.89E+07,2.12E+07,0,1.26E-02,6.37E-07,2.76E-03,0,1.26E-02,0,1.19E+09,2.42E+05,8.56E+08,0,1.19E+09,-1.51E-05,4.11E-09,-5.3535,9.57E-02,-3.19E+07,2.12E+07,0,1.26E-02,0,1.19E+09
26,1,3.21E-06,-1.57E-05,3.42E-09,-1.57E-05,-1.46E-05,-1.43E-05,3.42E-09,-5.1021,7.07E-02,-4.6117,-4.0029,-5.1021,7.07E-02,-2.52E+07,3.40E+07,-2.52E+07,1.88E+07,-2.30E+07,3.40E+07,0,1.26E-02,6.69E-07,2.80E-03,0,1.26E-02,0,1.21E+09,2.35E+05,9.18E+08,0,1.21E+09,-1.57E-05,3.42E-09,-5.1021,7.07E-02,-2.52E+07,3.40E+07,0,1.26E-02,0,1.21E+09
27,1,3.34E-06,-1.63E-05,6.97E-09,-1.63E-05,-1.52E-05,-1.50E-05,6.97E-09,-4.9122,7.24E-02,-4.5698,-4.0207,-4.9122,7.24E-02,-2.73E+07,2.44E+07,-2.73E+07,1.05E+07,-2.20E+07,2.44E+07,0,1.26E-02,8.42E-07,2.94E-03,0,1.26E-02,0,1.22E+09,3.57E+05,9.83E+08,0,1.22E+09,-1.63E-05,6.97E-09,-4.9122,7.24E-02,-2.73E+07,2.44E+07,0,1.26E-02,0,1.22E+09
28,1,3.46E-06,-1.69E-05,1.07E-08,-1.69E-05,-1.58E-05,-1.56E-05,1.07E-08,-4.792,4.79E-02,-4.5131,-3.9955,-4.792,4.79E-02,-1.54E+07,1.54E+07,-1.06E+07,1.20E+07,-1.54E+07,1.54E+07,0,1.26E-02,1.06E-06,3.27E-03,0,1.26E-02,0,1.23E+09,4.31E+05,1.04E+09,0,1.23E+09,-1.69E-05,1.07E-08,-4.792,4.79E-02,-1.54E+07,1.54E+07,0,1.26E-02,0,1.23E+09
29,1,3.59E-06,-1.74E-05,1.19E-08,-1.74E-05,-1.63E-05,-1.62E-05,1.19E-08,-4.9034,4.42E-02,-4.4649,-3.9122,-4.9034,4.42E-02,-9.41E+06,1.50E+07,-9.41E+06,1.06E+07,-7.41E+06,1.50E+07,0,1.27E-02,9.53E-07,3.63E-03,0,1.27E-02,0,1.24E+09,3.46E+05,1.10E+09,0,1.24E+09,-1.74E-05,1.19E-08,-4.9034,4.42E-02,-9.41E+06,1.50E+07,0,1.27E-02,0,1.24E+09
30,1,3.72E-06,-1.80E-05,1.04E-08,-1.80E-05,-1.68E-05,-1.69E-05,1.04E-08,-4.9596,0.3989,-4.4155,-3.8669,-4.9596,0.3989,-1.27E+07,1.16E+07,-1.27E+07,1.16E+07,-1.03E+07,9.98E+06,0,1.27E-02,9.52E-07,4.06E-03,0,1.27E-02,0,1.25E+09,3.49E+05,1.16E+09,0,1.25E+09,-1.80E-05,1.04E-08,-4.9596,0.3989,-1.27E+07,1.16E+07,0,1.27E-02,0,1.25E+09
31,1,3.85E-06,-1.86E-05,6.05E-09,-1.86E-05,-1.74E-05,-1.75E-05,6.05E-09,-4.9732,0.57144,-4.3616,-3.8579,-4.9732,0.57144,-9.08E+06,1.16E+07,-7.07E+06,1.16E+07,-9.08E+06,9.76E+06,0,1.27E-02,9.37E-07,4.54E-03,0,1.27E-02,0,1.25E+09,3.97E+05,1.22E+09,0,1.25E+09,-1.86E-05,6.05E-09,-4.9732,0.57144,-9.08E+06,1.16E+07,0,1.27E-02,0,1.25E+09
32,1,3.98E-06,-1.91E-05,7.70E-09,-1.91E-05,-1.79E-05,-1.81E-05,7.70E-09,-4.8132,0.54031,-4.307,-3.8268,-4.8132,0.54031,-2.19E+07,4.90E+07,-2.19E+07,4.90E+07,-1.07E+07,1.23E+07,0,1.27E-02,1.04E-06,5.01E-03,0,1.27E-02,0,1.28E+09,4.15E+05,1.28E+09,0,1.25E+09,-1.91E-05,7.70E-09,-4.8132,0.54031,-2.19E+07,4.90E+07,0,1.27E-02,0,1.28E+09
33,1,4.11E-06,-1.97E-05,1.06E-08,-1.97E-05,-1.84E-05,-1.87E-05,1.06E-08,-4.4099,0.1654,-4.2637,-3.8126,-4.4099,0.1654,-1.90E+07,2.06E+07,-1.90E+07,2.06E+07,-1.67E+07,1.49E+07,0,1.27E-02,8.01E-07,5.45E-03,0,1.27E-02,0,1.34E+09,3.02E+05,1.34E+09,0,1.25E+09,-1.97E-05,1.06E-08,-4.4099,0.1654,-1.90E+07,2.06E+07,0,1.27E-02,0,1.34E+09
34,1,4.23E-06,-2.02E-05,9.06E-09,-2.02E-05,-1.89E-05,-1.93E-05,9.06E-09,-4.4031,8.23E-02,-4.1913,-3.7251,-4.4031,8.23E-02,-2.74E+07,2.98E+07,-2.74E+07,2.98E+07,-1.96E+07,7.62E+06,0,1.27E-02,8.78E-07,5.87E-03,0,1.27E-02,0,1.39E+09,3.37E+05,1.39E+09,0,1.25E+09,-2.02E-05,9.06E-09,-4.4031,8.23E-02,-2.74E+07,2.98E+07,0,1.27E-02,0,1.39E+09
35,1,4.36E-06,-2.07E-05,9.60E-09,-2.07E-05,-1.93E-05,-1.99E-05,9.60E-09,-4.293,5.54E-02,-4.1393,-3.7245,-4.293,5.54E-02,-2.50E+07,1.78E+07,-2.50E+07,1.50E+07,-9.18E+06,1.78E+07,0,1.27E-02,1.12E-06,6.27E-03,0,1.27E-02,0,1.43E+09,4.68E+05,1.43E+09,0,1.24E+09,-2.07E-05,9.60E-09,-4.293,5.54E-02,-2.50E+07,1.78E+07,0,1.27E-02,0,1.43E+09
36,1,4.49E-06,-2.13E-05,1.11E-08,-2.13E-05,-1.98E-05,-2.04E-05,1.11E-08,-4.2019,0.11737,-4.0719,-3.5815,-4.2019,0.11737,-2.13E+07,1.27E+07,-2.13E+07,1.27E+07,-8.75E+06,8.62E+06,0,1.27E-02,1.26E-06,6.67E-03,0,1.27E-02,0,1.52E+09,4.86E+05,1.52E+09,0,1.25E+09,-2.13E-05,1.11E-08,-4.2019,0.11737,-2.13E+07,1.27E+07,0,1.27E-02,0,1.52E+09
37,1,4.62E-06,-2.18E-05,1.26E-08,-2.18E-05,-2.03E-05,-2.10E-05,1.26E-08,-4.1825,0.36539,-4.0145,-3.5319,-4.1825,0.36539,-9.79E+06,1.18E+07,-9.79E+06,1.18E+07,-6.96E+06,8.91E+06,0,1.27E-02,1.11E-06,7.07E-03,0,1.27E-02,0,1.62E+09,4.32E+05,1.62E+09,0,1.26E+09,-2.18E-05,1.26E-08,-4.1825,0.36539,-9.79E+06,1.18E+07,0,1.27E-02,0,1.62E+09
38,1,4.75E-06,-2.23E-05,1.13E-08,-2.23E-05,-2.07E-05,-2.15E-05,1.13E-08,-4.1337,0.66801,-3.9519,-3.4436,-4.1337,0.66801,-7.94E+06,8.22E+06,-7.94E+06,8.22E+06,-5.78E+06,7.11E+06,0,1.27E-02,1.10E-06,7.48E-03,0,1.27E-02,0,1.73E+09,3.98E+05,1.73E+09,0,1.27E+09,-2.23E-05,1.13E-08,-4.1337,0.66801,-7.94E+06,8.22E+06,0,1.27E-02,0,1.73E+09
39,1,4.88E-06,-2.28E-05,7.70E-09,-2.28E-05,-2.12E-05,-2.20E-05,7.70E-09,-3.9317,0.68921,-3.9317,-3.5361,-3.9051,0.68921,-6.64E+07,3.37E+07,-6.64E+07,3.37E+07,-6.32E+07,2.28E+07,0,1.27E-02,1.25E-06,7.65E-03,0,1.27E-02,0,1.77E+09,5.32E+05,1.77E+09,0,1.29E+09,-2.28E-05,7.70E-09,-3.9317,0.68921,-6.64E+07,3.37E+07,0,1.27E-02,0,1.77E+09
40,1,5.00E-06,-2.33E-05,7.81E-09,-2.33E-05,-2.16E-05,-2.25E-05,7.81E-09,-3.8154,5.41E-02,-3.8154,-3.3403,-3.7338,5.41E-02,-1.75E+07,1.49E+07,-1.75E+07,1.49E+07,-1.49E+07,1.27E+07,0,1.27E-02,1.23E-06,7.58E-03,0,1.27E-02,0,1.75E+09,4.96E+05,1.75E+09,0,1.30E+09,-2.33E-05,7.81E-09,-3.8154,5.41E-02,-1.75E+07,1.49E+07,0,1.27E-02,0,1.75E+09
41,1,5.13E-06,-2.38E-05,1.05E-08,-2.38E-05,-2.21E-05,-2.30E-05,1.05E-08,-3.7475,5.18E-02,-3.7475,-3.3279,-3.7086,5.18E-02,-1.80E+07,1.40E+07,-1.13E+07,1.40E+07,-1.80E+07,9.01E+06,0,1.27E-02,1.06E-06,7.51E-03,0,1.27E-02,0,1.76E+09,4.38E+05,1.76E+09,0,1.31E+09,-2.38E-05,1.05E-08,-3.7475,5.18E-02,-1.80E+07,1.40E+07,0,1.27E-02,0,1.76E+09
42,1,5.26E-06,-2.43E-05,1.09E-08,-2.43E-05,-2.26E-05,-2.34E-05,1.09E-08,-3.6825,5.14E-02,-3.6825,-3.2543,-3.6376,5.14E-02,-9.76E+06,1.01E+07,-9.76E+06,8.36E+06,-8.23E+06,1.01E+07,0,1.27E-02,1.05E-06,7.45E-03,0,1.27E-02,0,1.79E+09,3.92E+05,1.79E+09,0,1.32E+09,-2.43E-05,1.09E-08,-3.6825,5.14E-02,-9.76E+06,1.01E+07,0,1.27E-02,0,1.79E+09
43,1,5.39E-06,-2.47E-05,1.20E-08,-2.47E-05,-2.30E-05,-2.39E-05,1.20E-08,-3.6403,0.15422,-3.611,-3.2045,-3.6403,0.15422,-7.99E+06,1.14E+07,-7.99E+06,1.14E+07,-7.85E+06,7.16E+06,0,1.27E-02,1.30E-06,7.37E-03,0,1.27E-02,0,1.82E+09,4.79E+05,1.82E+09,0,1.33E+09,-2.47E-05,1.20E-08,-3.6403,0.15422,-7.99E+06,1.14E+07,0,1.27E-02,0,1.82E+09
44,1,5.52E-06,-2.52E-05,1.40E-08,-2.52E-05,-2.35E-05,-2.44E-05,1.40E-08,-3.5453,9.22E-02,-3.5354,-3.1139,-3.5453,9.22E-02,-6.46E+06,9.07E+06,-5.12E+06,9.07E+06,-6.46E+06,6.81E+06,0,1.27E-02,1.36E-06,7.30E-03,0,1.27E-02,0,1.86E+09,4.88E+05,1.86E+09,0,1.33E+09,-2.52E-05,1.40E-08,-3.5453,9.22E-02,-6.46E+06,9.07E+06,0,1.27E-02,0,1.86E+09
45,1,5.65E-06,-2.56E-05,1.19E-08,-2.56E-05,-2.39E-05,-2.48E-05,1.19E-08,-3.4654,0.46673,-3.4654,-3.0253,-3.4544,0.46673,-5.93E+06,7.50E+06,-3.72E+06,4.59E+06,-5.93E+06,7.50E+06,0,1.27E-02,1.25E-06,7.22E-03,0,1.27E-02,0,1.89E+09,4.34E+05,1.89E+09,0,1.34E+09,-2.56E-05,1.19E-08,-3.4654,0.46673,-5.93E+06,7.50E+06,0,1.27E-02,0,1.89E+09
46,1,5.78E-06,-2.61E-05,8.96E-09,-2.61E-05,-2.43E-05,-2.52E-05,8.96E-09,-3.4264,0.63092,-3.3886,-2.9703,-3.4264,0.63092,-9.50E+06,6.98E+06,-4.17E+06,6.98E+06,-9.50E+06,6.67E+06,0,1.27E-02,1.32E-06,7.15E-03,0,1.27E-02,0,1.93E+09,5.01E+05,1.93E+09,0,1.35E+09,-2.61E-05,8.96E-09,-3.4264,0.63092,-9.50E+06,6.98E+06,0,1.27E-02,0,1.93E+09
47,1,5.90E-06,-2.65E-05,6.63E-09,-2.65E-05,-2.48E-05,-2.57E-05,6.63E-09,-3.3394,0.41783,-3.3072,-2.9059,-3.3394,0.41783,-7.58E+06,4.16E+06,-3.85E+06,3.97E+06,-7.58E+06,4.16E+06,0,1.27E-02,1.55E-06,7.07E-03,0,1.27E-02,0,1.96E+09,6.35E+05,1.96E+09,0,1.35E+09,-2.65E-05,6.63E-09,-3.3394,0.41783,-7.58E+06,4.16E+06,0,1.27E-02,0,1.96E+09
48,1,6.03E-06,-2.69E-05,1.05E-08,-2.69E-05,-2.52E-05,-2.61E-05,1.05E-08,-3.2488,6.00E-02,-3.2281,-2.8519,-3.2488,6.00E-02,-7.08E+06,4.62E+06,-2.67E+06,4.36E+06,-7.08E+06,4.62E+06,0,1.27E-02,1.30E-06,7.01E-03,0,1.27E-02,0,1.99E+09,5.38E+05,1.99E+09,0,1.35E+09,-2.69E-05,1.05E-08,-3.2488,6.00E-02,-7.08E+06,4.62E+06,0,1.27E-02,0,1.99E+09
49,1,6.16E-06,-2.73E-05,1.47E-08,-2.73E-05,-2.56E-05,-2.65E-05,1.47E-08,-3.1621,6.12E-02,-3.1475,-2.8208,-3.1621,6.12E-02,-3.71E+06,5.06E+06,-2.41E+06,3.19E+06,-3.71E+06,5.06E+06,0,1.27E-02,1.26E-06,6.97E-03,0,1.27E-02,0,2.02E+09,4.59E+05,2.02E+09,0,1.36E+09,-2.73E-05,1.47E-08,-3.1621,6.12E-02,-3.71E+06,5.06E+06,0,1.27E-02,0,2.02E+09
50,1,6.29E-06,-2.77E-05,1.47E-08,-2.77E-05,-2.60E-05,-2.69E-05,1.47E-08,-3.0708,0.10011,-3.0648,-2.7127,-3.0708,0.10011,-3.35E+06,1.12E+07,-2.26E+06,4.20E+06,-3.35E+06,1.12E+07,0,1.27E-02,9.68E-07,6.93E-03,0,1.27E-02,0,2.04E+09,2.81E+05,2.04E+09,0,1.36E+09,-2.77E-05,1.47E-08,-3.0708,0.10011,-3.35E+06,1.12E+07,0,1.27E-02,0,2.04E+09
51,1,6.42E-06,-2.81E-05,1.25E-08,-2.81E-05,-2.63E-05,-2.72E-05,1.25E-08,-3.0027,0.22366,-2.9884,-2.6333,-3.0027,0.22366,-4.34E+06,6.95E+06,-2.41E+06,3.30E+06,-4.34E+06,6.95E+06,0,1.27E-02,1.39E-06,6.89E-03,0,1.27E-02,0,2.07E+09,5.02E+05,2.07E+09,0,1.36E+09,-2.81E-05,1.25E-08,-3.0027,0.22366,-4.34E+06,6.95E+06,0,1.27E-02,0,2.07E+09
52,1,6.55E-06,-2.85E-05,1.21E-08,-2.85E-05,-2.67E-05,-2.76E-05,1.21E-08,-3.2889,0.41769,-2.9058,-2.6014,-3.2889,0.41769,-2.42E+06,5.23E+06,-2.42E+06,4.14E+06,-2.33E+06,5.23E+06,0,1.27E-02,1.72E-06,6.79E-03,0,1.27E-02,0,2.08E+09,6.75E+05,2.08E+09,0,1.36E+09,-2.85E-05,1.21E-08,-3.2889,0.41769,-2.42E+06,5.23E+06,0,1.27E-02,0,2.08E+09
53,1,6.67E-06,-2.88E-05,1.24E-08,-2.88E-05,-2.71E-05,-2.80E-05,1.24E-08,-3.2926,0.63845,-2.8248,-2.5533,-3.2926,0.63845,-6.96E+06,5.32E+06,-3.83E+06,3.09E+06,-6.96E+06,5.32E+06,0,1.27E-02,1.48E-06,6.69E-03,0,1.27E-02,0,2.10E+09,5.72E+05,2.10E+09,0,1.36E+09,-2.88E-05,1.24E-08,-3.2926,0.63845,-6.96E+06,5.32E+06,0,1.27E-02,0,2.10E+09
54,1,6.80E-06,-2.92E-05,1.04E-08,-2.92E-05,-2.74E-05,-2.83E-05,1.04E-08,-3.2043,0.56995,-2.7386,-2.46,-3.2043,0.56995,-5.24E+06,2.84E+06,-1.29E+06,2.01E+06,-5.24E+06,2.84E+06,0,1.27E-02,1.44E-06,6.60E-03,0,1.27E-02,0,2.11E+09,5.35E+05,2.11E+09,0,1.36E+09,-2.92E-05,1.04E-08,-3.2043,0.56995,-5.24E+06,2.84E+06,0,1.27E-02,0,2.11E+09
55,1,6.93E-06,-2.95E-05,9.76E-09,-2.95E-05,-2.78E-05,-2.86E-05,9.76E-09,-3.0611,0.4284,-2.6526,-2.4053,-3.0611,0.4284,-5.61E+06,2.20E+06,-1.21E+06,2.20E+06,-5.61E+06,1.88E+06,0,1.27E-02,1.69E-06,6.52E-03,0,1.27E-02,0,2.13E+09,7.15E+05,2.13E+09,0,1.36E+09,-2.95E-05,9.76E-09,-3.0611,0.4284,-5.61E+06,2.20E+06,0,1.27E-02,0,2.13E+09
56,1,7.06E-06,-2.99E-05,1.21E-08,-2.99E-05,-2.81E-05,-2.90E-05,1.21E-08,-2.9361,9.05E-02,-2.5585,-2.3384,-2.9361,9.05E-02,-5.10E+06,2.58E+06,-8.11E+05,1.95E+06,-5.10E+06,2.58E+06,0,1.27E-02,1.93E-06,6.44E-03,0,1.27E-02,0,2.14E+09,7.93E+05,2.14E+09,0,1.36E+09,-2.99E-05,1.21E-08,-2.9361,9.05E-02,-5.10E+06,2.58E+06,0,1.27E-02,0,2.14E+09
57,1,7.19E-06,-3.02E-05,1.58E-08,-3.02E-05,-2.84E-05,-2.93E-05,1.58E-08,-2.8291,5.73E-02,-2.4759,-2.2717,-2.8291,5.73E-02,-2.12E+06,3.92E+06,-9.42E+05,2.60E+06,-2.12E+06,3.92E+06,0,1.27E-02,1.63E-06,6.39E-03,0,1.27E-02,0,2.15E+09,6.56E+05,2.15E+09,0,1.36E+09,-3.02E-05,1.58E-08,-2.8291,5.73E-02,-2.12E+06,3.92E+06,0,1.27E-02,0,2.15E+09
58,1,7.32E-06,-3.05E-05,1.49E-08,-3.05E-05,-2.88E-05,-2.96E-05,1.49E-08,-2.7608,0.11881,-2.3903,-2.1822,-2.7608,0.11881,-2.41E+06,4.31E+06,-7.19E+05,1.60E+06,-2.41E+06,4.31E+06,0,1.27E-02,1.27E-06,6.33E-03,0,1.27E-02,0,2.16E+09,4.70E+05,2.16E+09,0,1.36E+09,-3.05E-05,1.49E-08,-2.7608,0.11881,-2.41E+06,4.31E+06,0,1.27E-02,0,2.16E+09
59,1,7.44E-06,-3.08E-05,1.32E-08,-3.08E-05,-2.91E-05,-2.99E-05,1.32E-08,-2.6803,0.37843,-2.3006,-2.0899,-2.6803,0.37843,-1.73E+06,4.86E+06,-2.12E+05,1.32E+06,-1.73E+06,4.86E+06,0,1.27E-02,1.24E-06,6.26E-03,0,1.27E-02,0,2.17E+09,4.14E+05,2.17E+09,0,1.36E+09,-3.08E-05,1.32E-08,-2.6803,0.37843,-1.73E+06,4.86E+06,0,1.27E-02,0,2.17E+09
60,1,7.57E-06,-3.11E-05,1.19E-08,-3.11E-05,-2.94E-05,-3.01E-05,1.19E-08,-2.6172,0.39539,-2.2191,-2.0085,-2.6172,0.39539,-2.19E+06,3.89E+06,-4.42E+05,2.36E+06,-2.19E+06,3.89E+06,0,1.27E-02,1.54E-06,6.24E-03,0,1.27E-02,0,2.18E+09,5.56E+05,2.18E+09,0,1.36E+09,-3.11E-05,1.19E-08,-2.6172,0.39539,-2.19E+06,3.89E+06,0,1.27E-02,0,2.18E+09
61,1,7.70E-06,-3.14E-05,1.18E-08,-3.14E-05,-2.96E-05,-3.04E-05,1.18E-08,-2.4714,0.50188,-2.1292,-1.9228,-2.4714,0.50188,-3.15E+06,2.34E+06,-81671,1.49E+06,-3.15E+06,2.34E+06,0,1.27E-02,1.74E-06,6.32E-03,0,1.27E-02,0,2.19E+09,6.70E+05,2.19E+09,0,1.37E+09,-3.14E-05,1.18E-08,-2.4714,0.50188,-3.15E+06,2.34E+06,0,1.27E-02,0,2.19E+09
62,1,7.83E-06,-3.16E-05,1.13E-08,-3.16E-05,-2.99E-05,-3.07E-05,1.13E-08,-2.3995,0.43578,-2.0355,-1.8454,-2.3995,0.43578,-3.66E+06,2.07E+06,-1.95E+05,1.46E+06,-3.66E+06,2.07E+06,0,1.27E-02,1.63E-06,6.39E-03,0,1.27E-02,0,2.19E+09,6.37E+05,2.19E+09,0,1.37E+09,-3.16E-05,1.13E-08,-2.3995,0.43578,-3.66E+06,2.07E+06,0,1.27E-02,0,2.19E+09
63,1,7.96E-06,-3.19E-05,1.08E-08,-3.19E-05,-3.01E-05,-3.09E-05,1.08E-08,-2.2635,0.17438,-1.9479,-1.7747,-2.2635,0.17438,-4.54E+06,2.12E+06,-1.24E+06,1.84E+06,-4.54E+06,2.12E+06,0,1.27E-02,1.66E-06,6.46E-03,0,1.27E-02,0,2.20E+09,6.65E+05,2.20E+09,0,1.37E+09,-3.19E-05,1.08E-08,-2.2635,0.17438,-4.54E+06,2.12E+06,0,1.27E-02,0,2.20E+09
64,1,8.09E-06,-3.21E-05,1.30E-08,-3.21E-05,-3.04E-05,-3.12E-05,1.30E-08,-1.9507,5.52E-02,-1.9507,-1.5923,-1.8854,5.52E-02,-3.05E+07,3.93E+07,-2.79E+07,3.93E+07,-3.05E+07,4.43E+06,0,1.27E-02,1.52E-06,6.51E-03,0,1.27E-02,0,2.21E+09,6.67E+05,2.21E+09,0,1.37E+09,-3.21E-05,1.30E-08,-1.9507,5.52E-02,-3.05E+07,3.93E+07,0,1.27E-02,0,2.21E+09
65,1,8.21E-06,-3.24E-05,1.58E-08,-3.24E-05,-3.06E-05,-3.14E-05,1.58E-08,-1.8287,5.36E-02,-1.8145,-1.5831,-1.8287,5.36E-02,-1.79E+07,1.24E+07,-8.71E+06,1.20E+07,-1.79E+07,1.24E+07,0,1.27E-02,1.50E-06,6.51E-03,0,1.27E-02,0,2.22E+09,6.43E+05,2.22E+09,0,1.37E+09,-3.24E-05,1.58E-08,-1.8287,5.36E-02,-1.79E+07,1.24E+07,0,1.27E-02,0,2.22E+09
66,1,8.34E-06,-3.26E-05,1.58E-08,-3.26E-05,-3.08E-05,-3.16E-05,1.58E-08,-1.6717,7.58E-02,-1.6717,-1.5026,-1.6222,7.58E-02,-1.23E+07,1.24E+07,-9.02E+06,6.92E+06,-1.23E+07,1.24E+07,0,1.27E-02,1.43E-06,6.51E-03,0,1.27E-02,0,2.23E+09,5.01E+05,2.23E+09,0,1.37E+09,-3.26E-05,1.58E-08,-1.6717,7.58E-02,-1.23E+07,1.24E+07,0,1.27E-02,0,2.23E+09
67,1,8.47E-06,-3.28E-05,1.47E-08,-3.28E-05,-3.10E-05,-3.18E-05,1.47E-08,-1.5824,0.28883,-1.5824,-1.4647,-1.553,0.28883,-5.42E+06,7.79E+06,-5.42E+06,7.79E+06,-5.26E+06,4.94E+06,0,1.27E-02,1.32E-06,6.50E-03,0,1.27E-02,0,2.24E+09,4.51E+05,2.24E+09,0,1.37E+09,-3.28E-05,1.47E-08,-1.5824,0.28883,-5.42E+06,7.79E+06,0,1.27E-02,0,2.24E+09
68,1,8.60E-06,-3.30E-05,1.21E-08,-3.30E-05,-3.12E-05,-3.20E-05,1.21E-08,-1.4875,0.31581,-1.4875,-1.3753,-1.4305,0.31581,-5.40E+06,4.54E+06,-4.16E+06,4.54E+06,-5.40E+06,3.34E+06,0,1.27E-02,1.52E-06,6.50E-03,0,1.27E-02,0,2.24E+09,5.55E+05,2.24E+09,0,1.37E+09,-3.30E-05,1.21E-08,-1.4875,0.31581,-5.40E+06,4.54E+06,0,1.27E-02,0,2.24E+09
69,1,8.73E-06,-3.32E-05,1.15E-08,-3.32E-05,-3.13E-05,-3.22E-05,1.15E-08,-1.3968,0.27909,-1.3968,-1.289,-1.3636,0.27909,-3.61E+06,4.00E+06,-2.41E+06,4.00E+06,-3.61E+06,3.15E+06,0,1.27E-02,1.74E-06,6.50E-03,0,1.27E-02,0,2.25E+09,6.78E+05,2.25E+09,0,1.37E+09,-3.32E-05,1.15E-08,-1.3968,0.27909,-3.61E+06,4.00E+06,0,1.27E-02,0,2.25E+09
70,1,8.86E-06,-3.34E-05,1.12E-08,-3.34E-05,-3.15E-05,-3.23E-05,1.12E-08,-1.3106,0.19961,-1.3102,-1.054,-1.3106,0.19961,-2.97E+07,1.75E+07,-2.97E+07,1.37E+07,-9.07E+06,1.75E+07,0,1.27E-02,1.66E-06,6.49E-03,0,1.27E-02,0,2.26E+09,6.69E+05,2.26E+09,0,1.37E+09,-3.34E-05,1.12E-08,-1.3106,0.19961,-2.97E+07,1.75E+07,0,1.27E-02,0,2.26E+09
71,1,8.98E-06,-3.35E-05,1.23E-08,-3.35E-05,-3.16E-05,-3.25E-05,1.23E-08,-1.2157,5.13E-02,-1.2157,-1.0371,-1.1971,5.13E-02,-5.30E+06,6.10E+06,-5.30E+06,5.22E+06,-5.00E+06,6.10E+06,0,1.27E-02,1.74E-06,6.49E-03,0,1.27E-02,0,2.26E+09,6.61E+05,2.26E+09,0,1.37E+09,-3.35E-05,1.23E-08,-1.2157,5.13E-02,-5.30E+06,6.10E+06,0,1.27E-02,0,2.26E+09
72,1,9.11E-06,-3.37E-05,1.43E-08,-3.37E-05,-3.18E-05,-3.26E-05,1.43E-08,-1.1175,6.19E-02,-1.1175,-0.94578,-1.0815,6.19E-02,-2.72E+06,5.16E+06,-2.35E+06,5.16E+06,-2.72E+06,5.01E+06,0,1.27E-02,1.84E-06,6.49E-03,0,1.27E-02,0,2.26E+09,7.43E+05,2.26E+09,0,1.37E+09,-3.37E-05,1.43E-08,-1.1175,6.19E-02,-2.72E+06,5.16E+06,0,1.27E-02,0,2.26E+09
73,1,9.24E-06,-3.38E-05,1.70E-08,-3.38E-05,-3.19E-05,-3.27E-05,1.70E-08,-1.0178,4.58E-02,-1.0178,-0.87746,-0.98846,4.58E-02,-3.45E+06,5.71E+06,-3.45E+06,4.29E+06,-2.55E+06,5.71E+06,0,1.27E-02,2.00E-06,6.49E-03,0,1.27E-02,0,2.27E+09,7.94E+05,2.27E+09,0,1.37E+09,-3.38E-05,1.70E-08,-1.0178,4.58E-02,-3.45E+06,5.71E+06,0,1.27E-02,0,2.27E+09
74,1,9.37E-06,-3.39E-05,1.65E-08,-3.39E-05,-3.20E-05,-3.28E-05,1.65E-08,-0.91887,0.11034,-0.91887,-0.7951,-0.8905,0.11034,-3.06E+06,3.74E+06,-2.06E+06,3.60E+06,-3.06E+06,3.74E+06,0,1.27E-02,1.72E-06,6.48E-03,0,1.27E-02,0,2.27E+09,6.45E+05,2.27E+09,0,1.37E+09,-3.39E-05,1.65E-08,-0.91887,0.11034,-3.06E+06,3.74E+06,0,1.27E-02,0,2.27E+09
75,1,9.50E-06,-3.40E-05,1.34E-08,-3.40E-05,-3.21E-05,-3.30E-05,1.34E-08,-0.82686,0.16358,-0.82686,-0.70136,-0.79076,0.16358,-2.98E+06,5.75E+06,-2.29E+06,5.75E+06,-2.98E+06,3.64E+06,0,1.27E-02,1.49E-06,6.48E-03,0,1.27E-02,0,2.27E+09,5.16E+05,2.27E+09,0,1.37E+09,-3.40E-05,1.34E-08,-0.82686,0.16358,-2.98E+06,5.75E+06,0,1.27E-02,0,2.27E+09
76,1,9.63E-06,-3.41E-05,1.22E-08,-3.41E-05,-3.22E-05,-3.30E-05,1.22E-08,-0.73474,0.1917,-0.73474,-0.61309,-0.70003,0.1917,-2.92E+06,2.84E+06,-5.33E+05,2.67E+06,-2.92E+06,2.84E+06,0,1.27E-02,1.44E-06,6.47E-03,0,1.27E-02,0,2.27E+09,5.20E+05,2.27E+09,0,1.37E+09,-3.41E-05,1.22E-08,-0.73474,0.1917,-2.92E+06,2.84E+06,0,1.27E-02,0,2.27E+09
77,1,9.76E-06,-3.42E-05,1.10E-08,-3.42E-05,-3.23E-05,-3.31E-05,1.10E-08,-0.64039,0.1345,-0.64039,-0.52938,-0.60305,0.1345,-2.77E+06,2.57E+06,-8.98E+05,2.57E+06,-2.77E+06,2.29E+06,0,1.27E-02,1.81E-06,6.47E-03,0,1.27E-02,0,2.28E+09,7.11E+05,2.28E+09,0,1.37E+09,-3.42E-05,1.10E-08,-0.64039,0.1345,-2.77E+06,2.57E+06,0,1.27E-02,0,2.28E+09
78,1,9.88E-06,-3.43E-05,1.37E-08,-3.43E-05,-3.24E-05,-3.32E-05,1.37E-08,-0.53915,6.89E-02,-0.53915,-0.46635,-0.50137,6.89E-02,-3.23E+06,3.08E+06,-1.39E+06,2.92E+06,-3.23E+06,3.08E+06,0,1.27E-02,1.89E-06,6.47E-03,0,1.27E-02,0,2.28E+09,7.49E+05,2.28E+09,0,1.37E+09,-3.43E-05,1.37E-08,-0.53915,6.89E-02,-3.23E+06,3.08E+06,0,1.27E-02,0,2.28E+09
79,1,1.00E-05,-3.44E-05,1.38E-08,-3.44E-05,-3.24E-05,-3.32E-05,1.38E-08,-0.43794,4.75E-02,-0.43794,-0.36929,-0.38836,4.75E-02,-2.68E+06,2.63E+06,-2.07E+06,1.88E+06,-2.68E+06,2.63E+06,0,1.27E-02,1.73E-06,6.46E-03,0,1.27E-02,0,2.28E+09,6.65E+05,2.28E+09,0,1.37E+09,-3.44E-05,1.38E-08,-0.43794,4.75E-02,-2.68E+06,2.63E+06,0,1.27E-02,0,2.28E+09
80,1,1.01E-05,-3.44E-05,1.58E-08,-3.44E-05,-3.25E-05,-3.33E-05,1.58E-08,-0.34138,3.49E-02,-0.34138,-0.27577,-0.30675,3.49E-02,-1.69E+06,3.21E+06,-1.06E+06,2.82E+06,-1.69E+06,3.21E+06,0,1.27E-02,1.65E-06,6.46E-03,0,1.27E-02,0,2.28E+09,5.91E+05,2.28E+09,0,1.37E+09,-3.44E-05,1.58E-08,-0.34138,3.49E-02,-1.69E+06,3.21E+06,0,1.27E-02,0,2.28E+09
81,1,1.03E-05,-3.44E-05,1.71E-08,-3.44E-05,-3.25E-05,-3.33E-05,1.71E-08,-0.24465,8.30E-02,-0.24465,-0.17902,-0.20782,8.30E-02,-1.57E+06,3.04E+06,-6.84E+05,1.64E+06,-1.57E+06,3.04E+06,0,1.27E-02,1.32E-06,6.46E-03,0,1.27E-02,0,2.28E+09,5.65E+05,2.28E+09,0,1.37E+09,-3.44E-05,1.71E-08,-0.24465,8.30E-02,-1.57E+06,3.04E+06,0,1.27E-02,0,2.28E+09
82,1,1.04E-05,-3.45E-05,1.59E-08,-3.45E-05,-3.25E-05,-3.33E-05,1.59E-08,-0.14656,0.18831,-0.14656,-7.44E-02,-0.11909,0.18831,-2.58E+06,2.36E+06,-8.95E+05,1.62E+06,-2.58E+06,2.36E+06,0,1.27E-02,1.59E-06,6.46E-03,0,1.27E-02,0,2.28E+09,6.80E+05,2.28E+09,0,1.37E+09,-3.45E-05,1.59E-08,-0.14656,0.18831,-2.58E+06,2.36E+06,0,1.27E-02,0,2.28E+09
83,1,1.05E-05,-3.45E-05,1.24E-08,-3.45E-05,-3.25E-05,-3.33E-05,1.24E-08,-5.01E-02,0.15876,-5.01E-02,2.90E-02,-4.35E-02,0.15876,-1.89E+06,2.20E+06,-1.22E+05,1.71E+06,-1.89E+06,2.20E+06,0,1.27E-02,1.87E-06,6.46E-03,0,1.27E-02,0,2.28E+09,7.28E+05,2.28E+09,0,1.37E+09,-3.45E-05,1.24E-08,-5.01E-02,0.15876,-1.89E+06,2.20E+06,0,1.27E-02,0,2.28E+09
84,1,1.07E-05,-3.45E-05,1.29E-08,-3.45E-05,-3.25E-05,-3.33E-05,1.29E-08,-5.21E-02,0.12374,4.69E-02,0.12374,-5.21E-02,9.43E-02,-2.56E+06,1.84E+06,-4.20E+05,1.56E+06,-2.56E+06,1.84E+06,0,1.27E-02,1.60E-06,6.46E-03,0,1.27E-02,0,2.28E+09,5.93E+05,2.28E+09,0,1.37E+09,-3.45E-05,1.29E-08,-5.21E-02,0.12374,-2.56E+06,1.84E+06,0,1.27E-02,0,2.28E+09
85,1,1.08E-05,-3.45E-05,1.23E-08,-3.45E-05,-3.25E-05,-3.33E-05,1.23E-08,-9.30E-02,0.22179,0.12401,0.22179,-9.30E-02,0.14582,-1.97E+06,2.13E+06,-16248,1.74E+06,-1.97E+06,2.13E+06,0,1.27E-02,1.63E-06,6.45E-03,0,1.27E-02,0,2.28E+09,6.18E+05,2.28E+09,0,1.37E+09,-3.45E-05,1.23E-08,-9.30E-02,0.22179,-1.97E+06,2.13E+06,0,1.27E-02,0,2.28E+09
86,1,1.09E-05,-3.44E-05,1.34E-08,-3.44E-05,-3.25E-05,-3.33E-05,1.34E-08,-0.10825,0.31998,0.21158,0.31998,-0.10825,0.23251,-1.87E+06,1.89E+06,2.14E+05,1.44E+06,-1.87E+06,1.89E+06,0,1.27E-02,1.62E-06,6.43E-03,0,1.27E-02,0,2.27E+09,6.41E+05,2.27E+09,0,1.37E+09,-3.44E-05,1.34E-08,-0.10825,0.31998,-1.87E+06,1.89E+06,0,1.27E-02,0,2.27E+09
87,1,1.10E-05,-3.44E-05,1.56E-08,-3.44E-05,-3.25E-05,-3.33E-05,1.56E-08,-6.41E-02,0.42002,0.30478,0.42002,-6.41E-02,0.32461,-9.44E+05,3.25E+06,24795,1.89E+06,-9.44E+05,3.25E+06,0,1.26E-02,1.69E-06,6.40E-03,0,1.26E-02,0,2.26E+09,6.82E+05,2.26E+09,0,1.36E+09,-3.44E-05,1.56E-08,-6.41E-02,0.42002,-9.44E+05,3.25E+06,0,1.26E-02,0,2.26E+09
88,1,1.12E-05,-3.44E-05,1.61E-08,-3.44E-05,-3.24E-05,-3.32E-05,1.61E-08,-3.07E-02,0.51727,0.40821,0.51727,-3.07E-02,0.42812,-1.44E+06,2.84E+06,67632,1.40E+06,-1.44E+06,2.84E+06,0,1.26E-02,1.78E-06,6.38E-03,0,1.26E-02,0,2.25E+09,6.60E+05,2.25E+09,0,1.36E+09,-3.44E-05,1.61E-08,-3.07E-02,0.51727,-1.44E+06,2.84E+06,0,1.26E-02,0,2.25E+09
89,1,1.13E-05,-3.43E-05,1.41E-08,-3.43E-05,-3.24E-05,-3.32E-05,1.41E-08,-4.86E-02,0.61187,0.5019,0.61187,-4.86E-02,0.51967,-1.35E+06,2.08E+06,-61706,1.22E+06,-1.35E+06,2.08E+06,0,1.26E-02,1.83E-06,6.36E-03,0,1.26E-02,0,2.24E+09,6.97E+05,2.24E+09,0,1.36E+09,-3.43E-05,1.41E-08,-4.86E-02,0.61187,-1.35E+06,2.08E+06,0,1.26E-02,0,2.24E+09
90,1,1.14E-05,-3.42E-05,1.33E-08,-3.42E-05,-3.23E-05,-3.31E-05,1.33E-08,-3.73E-02,0.70666,0.56891,0.70666,-3.73E-02,0.58799,-1.99E+06,1.84E+06,76463,1.21E+06,-1.99E+06,1.84E+06,0,1.25E-02,1.76E-06,6.33E-03,0,1.25E-02,0,2.23E+09,6.69E+05,2.23E+09,0,1.35E+09,-3.42E-05,1.33E-08,-3.73E-02,0.70666,-1.99E+06,1.84E+06,0,1.25E-02,0,2.23E+09
91,1,1.16E-05,-3.41E-05,1.12E-08,-3.41E-05,-3.22E-05,-3.30E-05,1.12E-08,-3.72E-02,0.80157,0.6282,0.80157,-3.72E-02,0.64561,-2.10E+06,1.81E+06,-1914.4,1.37E+06,-2.10E+06,1.81E+06,0,1.25E-02,1.62E-06,6.30E-03,0,1.25E-02,0,2.21E+09,6.46E+05,2.21E+09,0,1.35E+09,-3.41E-05,1.12E-08,-3.72E-02,0.80157,-2.10E+06,1.81E+06,0,1.25E-02,0,2.21E+09
92,1,1.17E-05,-3.40E-05,1.35E-08,-3.40E-05,-3.21E-05,-3.29E-05,1.35E-08,-6.73E-02,0.89943,0.69259,0.89943,-6.73E-02,0.71543,-2.17E+06,1.61E+06,36192,1.26E+06,-2.17E+06,1.61E+06,0,1.24E-02,1.57E-06,6.25E-03,0,1.24E-02,0,2.19E+09,6.21E+05,2.19E+09,0,1.34E+09,-3.40E-05,1.35E-08,-6.73E-02,0.89943,-2.17E+06,1.61E+06,0,1.24E-02,0,2.19E+09
93,1,1.18E-05,-3.39E-05,1.20E-08,-3.39E-05,-3.20E-05,-3.29E-05,1.20E-08,-5.93E-02,0.99412,0.77452,0.99412,-5.93E-02,0.80467,-1.51E+06,2.54E+06,1.64E+05,1.42E+06,-1.51E+06,2.54E+06,0,1.23E-02,1.57E-06,6.20E-03,0,1.23E-02,0,2.17E+09,6.54E+05,2.17E+09,0,1.33E+09,-3.39E-05,1.20E-08,-5.93E-02,0.99412,-1.51E+06,2.54E+06,0,1.23E-02,0,2.17E+09
94,1,1.19E-05,-3.38E-05,1.38E-08,-3.38E-05,-3.19E-05,-3.28E-05,1.38E-08,-3.94E-02,1.0888,0.86685,1.0888,-3.94E-02,0.89302,-9.07E+05,2.86E+06,2.02E+05,1.43E+06,-9.07E+05,2.86E+06,0,1.23E-02,1.63E-06,6.14E-03,0,1.23E-02,0,2.14E+09,6.49E+05,2.14E+09,0,1.32E+09,-3.38E-05,1.38E-08,-3.94E-02,1.0888,-9.07E+05,2.86E+06,0,1.23E-02,0,2.14E+09
95,1,1.21E-05,-3.37E-05,1.37E-08,-3.37E-05,-3.18E-05,-3.26E-05,1.37E-08,-3.47E-02,1.1776,0.96017,1.1776,-3.47E-02,0.98703,-9.90E+05,2.44E+06,1.04E+05,1.30E+06,-9.90E+05,2.44E+06,0,1.22E-02,1.45E-06,6.08E-03,0,1.22E-02,0,2.11E+09,5.43E+05,2.11E+09,0,1.31E+09,-3.37E-05,1.37E-08,-3.47E-02,1.1776,-9.90E+05,2.44E+06,0,1.22E-02,0,2.11E+09
96,1,1.22E-05,-3.35E-05,1.35E-08,-3.35E-05,-3.17E-05,-3.25E-05,1.35E-08,-4.10E-02,1.261,1.0432,1.261,-4.10E-02,1.074,-1.30E+06,2.24E+06,1.23E+05,1.28E+06,-1.30E+06,2.24E+06,0,1.21E-02,1.34E-06,6.03E-03,0,1.21E-02,0,2.09E+09,4.69E+05,2.09E+09,0,1.31E+09,-3.35E-05,1.35E-08,-4.10E-02,1.261,-1.30E+06,2.24E+06,0,1.21E-02,0,2.09E+09
97,1,1.23E-05,-3.34E-05,1.06E-08,-3.34E-05,-3.15E-05,-3.24E-05,1.06E-08,-4.64E-02,1.3452,1.1068,1.3452,-4.64E-02,1.1378,-2.32E+06,1.49E+06,2.26E+05,9.59E+05,-2.32E+06,1.49E+06,0,1.20E-02,1.49E-06,5.97E-03,0,1.20E-02,0,2.06E+09,5.50E+05,2.06E+09,0,1.30E+09,-3.34E-05,1.06E-08,-4.64E-02,1.3452,-2.32E+06,1.49E+06,0,1.20E-02,0,2.06E+09
98,1,1.25E-05,-3.32E-05,1.07E-08,-3.32E-05,-3.14E-05,-3.22E-05,1.07E-08,-3.87E-02,1.432,1.1588,1.432,-3.87E-02,1.1858,-2.30E+06,1.46E+06,39350,9.65E+05,-2.30E+06,1.46E+06,0,1.19E-02,1.22E-06,5.91E-03,0,1.19E-02,0,2.03E+09,5.19E+05,2.03E+09,0,1.29E+09,-3.32E-05,1.07E-08,-3.87E-02,1.432,-2.30E+06,1.46E+06,0,1.19E-02,0,2.03E+09
99,1,1.26E-05,-3.30E-05,1.04E-08,-3.30E-05,-3.12E-05,-3.21E-05,1.04E-08,-4.02E-02,1.52,1.2047,1.52,-4.02E-02,1.2363,-2.00E+06,1.41E+06,1.01E+05,9.43E+05,-2.00E+06,1.41E+06,0,1.18E-02,1.19E-06,5.83E-03,0,1.18E-02,0,1.99E+09,5.16E+05,1.99E+09,0,1.27E+09,-3.30E-05,1.04E-08,-4.02E-02,1.52,-2.00E+06,1.41E+06,0,1.18E-02,0,1.99E+09
100,1,1.27E-05,-3.28E-05,1.25E-08,-3.28E-05,-3.11E-05,-3.19E-05,1.25E-08,-5.41E-02,1.6038,1.2751,1.6038,-5.41E-02,1.2967,-6.58E+06,7.95E+06,-6.31E+06,4.68E+06,-6.58E+06,7.95E+06,0,1.17E-02,1.47E-06,5.74E-03,0,1.17E-02,0,1.95E+09,5.78E+05,1.95E+09,0,1.26E+09,-3.28E-05,1.25E-08,-5.41E-02,1.6038,-6.58E+06,7.95E+06,0,1.17E-02,0,1.95E+09
101,1,1.28E-05,-3.26E-05,1.15E-08,-3.26E-05,-3.09E-05,-3.18E-05,1.15E-08,-5.02E-02,1.6821,1.3559,1.6821,-5.02E-02,1.3721,-3.26E+06,7.06E+06,-1.87E+06,7.06E+06,-3.26E+06,5.16E+06,0,1.16E-02,1.35E-06,5.65E-03,0,1.16E-02,0,1.91E+09,5.12E+05,1.91E+09,0,1.25E+09,-3.26E-05,1.15E-08,-5.02E-02,1.6821,-3.26E+06,7.06E+06,0,1.16E-02,0,1.91E+09
102,1,1.30E-05,-3.24E-05,1.33E-08,-3.24E-05,-3.07E-05,-3.16E-05,1.33E-08,-3.44E-02,1.757,1.4442,1.757,-3.44E-02,1.4608,-3.19E+06,6.06E+06,-3.19E+06,2.60E+06,-1.70E+06,6.06E+06,0,1.14E-02,1.26E-06,5.55E-03,0,1.14E-02,0,1.86E+09,4.83E+05,1.86E+09,0,1.23E+09,-3.24E-05,1.33E-08,-3.44E-02,1.757,-3.19E+06,6.06E+06,0,1.14E-02,0,1.86E+09
103,1,1.31E-05,-3.22E-05,1.00E-08,-3.22E-05,-3.05E-05,-3.14E-05,1.00E-08,-5.67E-02,1.8311,1.5141,1.8311,-5.67E-02,1.5361,-3.04E+06,3.22E+06,-9.88E+05,2.30E+06,-3.04E+06,3.22E+06,0,1.13E-02,1.07E-06,5.47E-03,0,1.13E-02,0,1.82E+09,4.18E+05,1.82E+09,0,1.22E+09,-3.22E-05,1.00E-08,-5.67E-02,1.8311,-3.04E+06,3.22E+06,0,1.13E-02,0,1.82E+09
104,1,1.32E-05,-3.20E-05,6.14E-08,-3.20E-05,-3.03E-05,-3.12E-05,6.14E-08,-4.32E-02,1.9079,1.5658,1.9079,-4.32E-02,1.5924,-9.44E+06,4.39E+06,-1.54E+06,2.12E+06,-9.44E+06,4.39E+06,0,1.11E-02,1.14E-06,5.33E-03,0,1.11E-02,0,1.78E+09,4.17E+05,1.78E+09,0,1.20E+09,-3.20E-05,6.14E-08,-4.32E-02,1.9079,-9.44E+06,4.39E+06,0,1.11E-02,0,1.78E+09
105,1,1.34E-05,-3.17E-05,1.55E-07,-3.17E-05,-3.01E-05,-3.10E-05,1.55E-07,-4.80E-02,1.9791,1.5724,1.9791,-4.80E-02,1.6146,-6.35E+06,4.83E+06,-1.72E+06,1.33E+06,-6.35E+06,4.83E+06,0,1.10E-02,1.16E-06,5.17E-03,0,1.10E-02,0,1.73E+09,4.91E+05,1.73E+09,0,1.18E+09,-3.17E-05,1.55E-07,-4.80E-02,1.9791,-6.35E+06,4.83E+06,0,1.10E-02,0,1.73E+09
106,1,1.35E-05,-3.15E-05,2.36E-07,-3.15E-05,-2.99E-05,-3.08E-05,2.36E-07,-3.54E-02,2.0461,1.6092,2.0461,-3.54E-02,1.661,-4.36E+06,4.51E+06,-1.54E+06,1.88E+06,-4.36E+06,4.51E+06,0,1.07E-02,1.21E-06,4.99E-03,0,1.07E-02,0,1.67E+09,5.00E+05,1.67E+09,0,1.16E+09,-3.15E-05,2.36E-07,-3.54E-02,2.0461,-4.36E+06,4.51E+06,0,1.07E-02,0,1.67E+09
107,1,1.36E-05,-3.12E-05,3.18E-07,-3.12E-05,-2.97E-05,-3.06E-05,3.18E-07,-5.51E-02,2.1089,1.6652,2.1089,-5.51E-02,1.713,-3.93E+06,3.16E+06,-4.72E+05,1.91E+06,-3.93E+06,3.16E+06,0,1.05E-02,1.23E-06,4.79E-03,0,1.05E-02,0,1.61E+09,4.80E+05,1.61E+09,0,1.13E+09,-3.12E-05,3.18E-07,-5.51E-02,2.1089,-3.93E+06,3.16E+06,0,1.05E-02,0,1.61E+09
108,1,1.37E-05,-3.10E-05,4.11E-07,-3.10E-05,-2.95E-05,-3.04E-05,4.11E-07,-4.44E-02,2.1709,1.7451,2.1709,-4.44E-02,1.7936,-3.93E+06,5.20E+06,-7.75E+05,1.58E+06,-3.93E+06,5.20E+06,0,1.03E-02,1.14E-06,4.60E-03,0,1.03E-02,0,1.55E+09,4.66E+05,1.55E+09,0,1.11E+09,-3.10E-05,4.11E-07,-4.44E-02,2.1709,-3.93E+06,5.20E+06,0,1.03E-02,0,1.55E+09
109,1,1.39E-05,-3.07E-05,5.17E-07,-3.07E-05,-2.93E-05,-3.02E-05,5.17E-07,-5.13E-02,2.2332,1.8142,2.2332,-5.13E-02,1.8657,-2.93E+06,3.40E+06,-4.48E+05,1.68E+06,-2.93E+06,3.40E+06,0,1.01E-02,9.55E-07,4.42E-03,0,1.01E-02,0,1.50E+09,3.81E+05,1.50E+09,0,1.08E+09,-3.07E-05,5.17E-07,-5.13E-02,2.2332,-2.93E+06,3.40E+06,0,1.01E-02,0,1.50E+09
110,1,1.40E-05,-3.04E-05,6.33E-07,-3.04E-05,-2.90E-05,-2.99E-05,6.33E-07,-4.56E-02,2.2954,1.8739,2.2954,-4.56E-02,1.9211,-2.76E+06,3.20E+06,-1.00E+06,1.16E+06,-2.76E+06,3.20E+06,0,9.91E-03,1.03E-06,4.24E-03,0,9.91E-03,0,1.44E+09,4.25E+05,1.44E+09,0,1.06E+09,-3.04E-05,6.33E-07,-4.56E-02,2.2954,-2.76E+06,3.20E+06,0,9.91E-03,0,1.44E+09
111,1,1.41E-05,-3.01E-05,7.52E-07,-3.01E-05,-2.88E-05,-2.97E-05,7.52E-07,-4.91E-02,2.3536,1.9053,2.3536,-4.91E-02,1.9565,-2.65E+06,2.45E+06,-5.00E+05,1.45E+06,-2.65E+06,2.45E+06,0,9.72E-03,9.60E-07,4.06E-03,0,9.72E-03,0,1.39E+09,3.92E+05,1.39E+09,0,1.04E+09,-3.01E-05,7.52E-07,-4.91E-02,2.3536,-2.65E+06,2.45E+06,0,9.72E-03,0,1.39E+09
112,1,1.42E-05,-2.99E-05,8.66E-07,-2.99E-05,-2.86E-05,-2.95E-05,8.66E-07,-3.75E-02,2.4044,1.9279,2.4044,-3.75E-02,1.9779,-3.84E+06,1.97E+06,-5.69E+05,1.35E+06,-3.84E+06,1.97E+06,0,9.51E-03,6.73E-07,3.86E-03,0,9.51E-03,0,1.33E+09,2.55E+05,1.33E+09,0,1.01E+09,-2.99E-05,8.66E-07,-3.75E-02,2.4044,-3.84E+06,1.97E+06,0,9.51E-03,0,1.33E+09
113,1,1.44E-05,-2.96E-05,9.66E-07,-2.96E-05,-2.83E-05,-2.92E-05,9.66E-07,-4.77E-02,2.4493,1.935,2.4493,-4.77E-02,1.9964,-3.25E+06,1.75E+06,-5.32E+05,1.29E+06,-3.25E+06,1.75E+06,0,9.28E-03,6.24E-07,3.67E-03,0,9.28E-03,0,1.26E+09,2.04E+05,1.26E+09,0,9.87E+08,-2.96E-05,9.66E-07,-4.77E-02,2.4493,-3.25E+06,1.75E+06,0,9.28E-03,0,1.26E+09
114,1,1.45E-05,-2.93E-05,1.06E-06,-2.93E-05,-2.80E-05,-2.90E-05,1.06E-06,-3.28E-02,2.4944,1.9773,2.4944,-3.28E-02,2.0365,-1.39E+06,4.08E+06,-5.66E+05,1.44E+06,-1.39E+06,4.08E+06,0,9.04E-03,7.26E-07,3.52E-03,0,9.04E-03,0,1.19E+09,2.99E+05,1.19E+09,0,9.57E+08,-2.93E-05,1.06E-06,-3.28E-02,2.4944,-1.39E+06,4.08E+06,0,9.04E-03,0,1.19E+09
115,1,1.46E-05,-2.89E-05,1.17E-06,-2.89E-05,-2.78E-05,-2.87E-05,1.17E-06,-5.71E-02,2.5384,2.0422,2.5384,-5.71E-02,2.0922,-5.21E+06,5.59E+06,-2.51E+06,2.71E+06,-5.21E+06,5.59E+06,0,8.88E-03,6.76E-07,3.38E-03,0,8.88E-03,0,1.12E+09,2.88E+05,1.12E+09,0,9.27E+08,-2.89E-05,1.17E-06,-5.71E-02,2.5384,-5.21E+06,5.59E+06,0,8.88E-03,0,1.12E+09
116,1,1.48E-05,-2.86E-05,1.30E-06,-2.86E-05,-2.75E-05,-2.85E-05,1.30E-06,-4.53E-02,2.5821,2.1158,2.5821,-4.53E-02,2.1833,-3.08E+06,3.20E+06,-1.59E+06,2.51E+06,-3.08E+06,3.20E+06,0,8.82E-03,5.61E-07,3.25E-03,0,8.82E-03,0,1.05E+09,2.40E+05,1.05E+09,0,8.96E+08,-2.86E-05,1.30E-06,-4.53E-02,2.5821,-3.08E+06,3.20E+06,0,8.82E-03,0,1.05E+09
117,1,1.49E-05,-2.83E-05,1.43E-06,-2.83E-05,-2.72E-05,-2.82E-05,1.43E-06,-4.44E-02,2.6178,2.1625,2.6178,-4.44E-02,2.2757,-4.51E+07,1.30E+07,-1.80E+06,3.15E+06,-4.51E+07,1.30E+07,0,8.77E-03,6.78E-07,3.12E-03,0,8.77E-03,0,9.82E+08,2.82E+05,9.82E+08,0,8.66E+08,-2.83E-05,1.43E-06,-4.44E-02,2.6178,-4.51E+07,1.30E+07,0,8.77E-03,0,9.82E+08
118,1,1.50E-05,-2.80E-05,1.57E-06,-2.80E-05,-2.69E-05,-2.79E-05,1.57E-06,-4.13E-02,2.6584,2.1743,2.6584,-4.13E-02,2.3043,-8.05E+06,8.36E+06,-3.23E+06,2.49E+06,-8.05E+06,8.36E+06,0,8.75E-03,5.13E-07,2.91E-03,0,8.75E-03,0,9.03E+08,2.01E+05,9.03E+08,0,8.26E+08,-2.80E-05,1.57E-06,-4.13E-02,2.6584,-8.05E+06,8.36E+06,0,8.75E-03,0,9.03E+08
119,1,1.51E-05,-2.77E-05,1.68E-06,-2.77E-05,-2.67E-05,-2.76E-05,1.68E-06,-4.59E-02,2.686,2.1863,2.686,-4.59E-02,2.2827,-6.33E+06,1.11E+07,-1.59E+06,2.76E+06,-6.33E+06,1.11E+07,0,8.77E-03,4.20E-07,2.69E-03,0,8.77E-03,0,8.18E+08,1.56E+05,8.17E+08,0,8.18E+08,-2.77E-05,1.68E-06,-4.59E-02,2.686,-6.33E+06,1.11E+07,0,8.77E-03,0,8.18E+08
120,1,1.53E-05,-2.73E-05,1.78E-06,-2.73E-05,-2.64E-05,-2.73E-05,1.78E-06,-6.07E-02,2.7166,2.1711,2.7166,-6.07E-02,2.2908,-4.38E+06,7.84E+06,-1.11E+06,2.23E+06,-4.38E+06,7.84E+06,0,8.84E-03,3.52E-07,2.45E-03,0,8.84E-03,0,8.11E+08,1.02E+05,7.23E+08,0,8.11E+08,-2.73E-05,1.78E-06,-6.07E-02,2.7166,-4.38E+06,7.84E+06,0,8.84E-03,0,8.11E+08
121,1,1.54E-05,-2.70E-05,1.88E-06,-2.70E-05,-2.61E-05,-2.70E-05,1.88E-06,-4.14E-02,2.7462,2.188,2.7462,-4.14E-02,2.3692,-4.32E+06,4.38E+06,-1.26E+06,1.48E+06,-4.32E+06,4.38E+06,0,8.95E-03,3.26E-07,2.20E-03,0,8.95E-03,0,8.03E+08,1.32E+05,6.27E+08,0,8.03E+08,-2.70E-05,1.88E-06,-4.14E-02,2.7462,-4.32E+06,4.38E+06,0,8.95E-03,0,8.03E+08
122,1,1.55E-05,-2.67E-05,1.99E-06,-2.67E-05,-2.58E-05,-2.67E-05,1.99E-06,-3.99E-02,2.7691,2.2428,2.7691,-3.99E-02,2.3633,-6.45E+06,5.50E+06,-9.46E+05,1.78E+06,-6.45E+06,5.50E+06,0,9.05E-03,3.11E-07,1.96E-03,0,9.05E-03,0,7.96E+08,1.33E+05,5.34E+08,0,7.96E+08,-2.67E-05,1.99E-06,-3.99E-02,2.7691,-6.45E+06,5.50E+06,0,9.05E-03,0,7.96E+08
123,1,1.57E-05,-2.64E-05,2.13E-06,-2.63E-05,-2.55E-05,-2.64E-05,2.13E-06,-3.72E-02,2.7865,2.3085,2.7865,-3.72E-02,2.4105,-3.70E+06,9.81E+06,-1.42E+06,5.30E+06,-3.70E+06,9.81E+06,0,9.15E-03,3.79E-07,1.74E-03,0,9.15E-03,0,7.90E+08,1.68E+05,4.50E+08,0,7.90E+08,-2.64E-05,2.13E-06,-3.72E-02,2.7865,-3.70E+06,9.81E+06,0,9.15E-03,0,7.90E+08
124,1,1.58E-05,-2.61E-05,2.28E-06,-2.60E-05,-2.52E-05,-2.61E-05,2.28E-06,-5.82E-02,2.8003,2.3463,2.8003,-5.82E-02,2.4584,-4.83E+06,5.10E+06,-1.88E+06,1.56E+06,-4.83E+06,5.10E+06,0,9.24E-03,2.24E-07,1.54E-03,0,9.24E-03,0,7.84E+08,1.00E+05,3.71E+08,0,7.84E+08,-2.61E-05,2.28E-06,-5.82E-02,2.8003,-4.83E+06,5.10E+06,0,9.24E-03,0,7.84E+08
125,1,1.59E-05,-2.58E-05,2.43E-06,-2.56E-05,-2.49E-05,-2.58E-05,2.43E-06,-3.76E-02,2.8113,2.3193,2.8113,-3.76E-02,2.4574,-5.17E+06,5.15E+06,-1.68E+06,1.64E+06,-5.17E+06,5.15E+06,0,9.35E-03,7.44E-08,1.34E-03,0,9.35E-03,0,7.82E+08,32867,2.92E+08,0,7.82E+08,-2.58E-05,2.43E-06,-3.76E-02,2.8113,-5.17E+06,5.15E+06,0,9.35E-03,0,7.82E+08
126,1,1.60E-05,-2.55E-05,2.56E-06,-2.53E-05,-2.45E-05,-2.55E-05,2.56E-06,-3.35E-02,2.8241,2.3255,2.8241,-3.35E-02,2.7031,-3.56E+07,1.33E+07,-4.21E+06,1.33E+07,-3.56E+07,2.29E+06,0,9.47E-03,6.05E-08,1.12E-03,0,9.47E-03,0,7.81E+08,19685,2.25E+08,0,7.81E+08,-2.55E-05,2.56E-06,-3.35E-02,2.8241,-3.56E+07,1.33E+07,0,9.47E-03,0,7.81E+08
127,1,1.62E-05,-2.52E-05,2.62E-06,-2.49E-05,-2.42E-05,-2.52E-05,2.62E-06,-7.34E-02,2.8383,2.2208,2.8383,-7.34E-02,2.4429,-2.71E+07,2.51E+07,-1.23E+07,1.01E+07,-2.71E+07,2.51E+07,0,9.56E-03,1.14E-07,9.18E-04,0,9.56E-03,0,7.81E+08,38197,1.68E+08,0,7.81E+08,-2.52E-05,2.62E-06,-7.34E-02,2.8383,-2.71E+07,2.51E+07,0,9.56E-03,0,7.81E+08
128,1,1.63E-05,-2.49E-05,2.65E-06,-2.46E-05,-2.38E-05,-2.49E-05,2.65E-06,-0.12181,2.8444,2.351,2.8444,-0.12181,2.7552,-1.13E+07,1.58E+07,-7.05E+06,1.31E+07,-1.13E+07,1.58E+07,0,9.64E-03,6.74E-08,8.45E-04,0,9.64E-03,0,7.81E+08,26854,1.93E+08,0,7.81E+08,-2.49E-05,2.65E-06,-0.12181,2.8444,-1.13E+07,1.58E+07,0,9.64E-03,0,7.81E+08
129,1,1.64E-05,-2.46E-05,2.70E-06,-2.42E-05,-2.34E-05,-2.46E-05,2.70E-06,-3.17E-02,2.8454,2.2822,2.8454,-3.17E-02,2.4712,-4.52E+07,1.45E+07,-1.95E+07,8.16E+06,-4.52E+07,1.45E+07,0,9.73E-03,7.47E-08,8.01E-04,0,9.73E-03,0,7.82E+08,18703,2.37E+08,0,7.82E+08,-2.46E-05,2.70E-06,-3.17E-02,2.8454,-4.52E+07,1.45E+07,0,9.73E-03,0,7.82E+08
130,1,1.66E-05,-2.43E-05,2.78E-06,-2.39E-05,-2.31E-05,-2.43E-05,2.78E-06,-4.10E-02,2.8424,2.4046,2.8424,-4.10E-02,2.6497,-2.09E+07,1.59E+07,-7.27E+06,1.37E+07,-2.09E+07,1.59E+07,0,9.75E-03,4.28E-08,8.26E-04,0,9.75E-03,0,7.87E+08,11622,2.56E+08,0,7.87E+08,-2.43E-05,2.78E-06,-4.10E-02,2.8424,-2.09E+07,1.59E+07,0,9.75E-03,0,7.87E+08
131,1,1.67E-05,-2.42E-05,2.86E-06,-2.35E-05,-2.27E-05,-2.42E-05,2.86E-06,-0.26274,2.8405,2.7206,2.8405,-0.26274,0.60413,-2.24E+07,3.60E+07,-1.38E+07,7.95E+06,-2.24E+07,3.60E+07,0,9.75E-03,4.68E-08,8.45E-04,0,9.75E-03,0,7.87E+08,12584,2.61E+08,0,7.87E+08,-2.42E-05,2.86E-06,-0.26274,2.8405,-2.24E+07,3.60E+07,0,9.75E-03,0,7.87E+08
132,1,1.68E-05,-2.41E-05,2.89E-06,-2.32E-05,-2.23E-05,-2.41E-05,2.89E-06,-0.12243,2.8427,2.7148,2.8427,-0.12243,0.29715,-3.23E+07,2.55E+07,-1.02E+07,5.04E+06,-3.23E+07,2.55E+07,0,9.75E-03,5.32E-08,8.46E-04,0,9.75E-03,0,7.88E+08,14774,2.62E+08,0,7.88E+08,-2.41E-05,2.89E-06,-0.12243,2.8427,-3.23E+07,2.55E+07,0,9.75E-03,0,7.88E+08
133,1,1.69E-05,-2.41E-05,2.88E-06,-2.28E-05,-2.20E-05,-2.41E-05,2.88E-06,-0.41406,2.8438,2.7106,2.8438,-0.41406,0.15235,-2.07E+07,1.47E+07,-5.01E+06,6.90E+06,-2.07E+07,1.47E+07,0,9.74E-03,3.07E-08,8.46E-04,0,9.74E-03,0,7.87E+08,8681.8,2.62E+08,0,7.87E+08,-2.41E-05,2.88E-06,-0.41406,2.8438,-2.07E+07,1.47E+07,0,9.74E-03,0,7.87E+08
134,1,1.71E-05,-2.42E-05,2.85E-06,-2.25E-05,-2.16E-05,-2.42E-05,2.85E-06,-0.70995,2.8436,2.7145,2.8436,-0.70995,4.03E-02,-1.55E+07,8.98E+06,-4.57E+06,1.92E+06,-1.55E+07,8.98E+06,0,9.73E-03,8.39E-08,8.46E-04,0,9.73E-03,0,7.88E+08,34954,2.62E+08,0,7.88E+08,-2.42E-05,2.85E-06,-0.70995,2.8436,-1.55E+07,8.98E+06,0,9.73E-03,0,7.88E+08
135,1,1.72E-05,-2.42E-05,2.79E-06,-2.21E-05,-2.13E-05,-2.42E-05,2.79E-06,-0.57477,2.8404,2.7215,2.8404,-0.57477,3.84E-02,-1.63E+07,9.11E+06,-3.02E+06,2.87E+06,-1.63E+07,9.11E+06,0,9.74E-03,5.65E-08,8.46E-04,0,9.74E-03,0,7.89E+08,16205,2.62E+08,0,7.89E+08,-2.42E-05,2.79E-06,-0.57477,2.8404,-1.63E+07,9.11E+06,0,9.74E-03,0,7.89E+08
136,1,1.73E-05,-2.43E-05,2.74E-06,-2.18E-05,-2.09E-05,-2.43E-05,2.74E-06,-0.35323,2.8362,2.72,2.8362,-0.35323,3.95E-02,-9.03E+06,1.47E+07,-3.71E+06,1.90E+06,-9.03E+06,1.47E+07,0,9.73E-03,6.38E-08,8.46E-04,0,9.73E-03,0,7.87E+08,14635,2.62E+08,0,7.87E+08,-2.43E-05,2.74E-06,-0.35323,2.8362,-9.03E+06,1.47E+07,0,9.73E-03,0,7.87E+08
137,1,1.75E-05,-2.43E-05,2.75E-06,-2.14E-05,-2.05E-05,-2.43E-05,2.75E-06,-4.04E-02,2.8403,2.7193,2.8403,-4.04E-02,0.4034,-8.15E+06,2.03E+07,-3.18E+06,2.57E+06,-8.15E+06,2.03E+07,0,9.74E-03,5.27E-08,8.46E-04,0,9.74E-03,0,7.87E+08,12326,2.62E+08,0,7.87E+08,-2.43E-05,2.75E-06,-4.04E-02,2.8403,-8.15E+06,2.03E+07,0,9.74E-03,0,7.87E+08
138,1,1.76E-05,-2.42E-05,2.80E-06,-2.11E-05,-2.02E-05,-2.42E-05,2.80E-06,-3.75E-02,2.8425,2.7197,2.8425,-3.75E-02,0.6201,-1.06E+07,9.59E+06,-2.20E+06,2.51E+06,-1.06E+07,9.59E+06,0,9.74E-03,6.15E-08,8.46E-04,0,9.74E-03,0,7.88E+08,23819,2.62E+08,0,7.88E+08,-2.42E-05,2.80E-06,-3.75E-02,2.8425,-1.06E+07,9.59E+06,0,9.74E-03,0,7.88E+08
139,1,1.77E-05,-2.42E-05,2.86E-06,-2.07E-05,-1.98E-05,-2.42E-05,2.86E-06,-4.64E-02,2.8491,2.7207,2.8491,-4.64E-02,0.53954,-9.46E+06,1.15E+07,-1.93E+06,2.59E+06,-9.46E+06,1.15E+07,0,9.73E-03,5.05E-08,8.46E-04,0,9.73E-03,0,7.87E+08,15671,2.62E+08,0,7.87E+08,-2.42E-05,2.86E-06,-4.64E-02,2.8491,-9.46E+06,1.15E+07,0,9.73E-03,0,7.87E+08
140,1,1.78E-05,-2.41E-05,2.89E-06,-2.04E-05,-1.94E-05,-2.41E-05,2.89E-06,-0.13635,2.8465,2.719,2.8465,-0.13635,0.32292,-9.39E+06,7.27E+06,-1.13E+06,1.42E+06,-9.39E+06,7.27E+06,0,9.74E-03,6.96E-08,8.46E-04,0,9.74E-03,0,7.86E+08,22225,2.62E+08,0,7.86E+08,-2.41E-05,2.89E-06,-0.13635,2.8465,-9.39E+06,7.27E+06,0,9.74E-03,0,7.86E+08
141,1,1.80E-05,-2.42E-05,2.88E-06,-2.00E-05,-1.91E-05,-2.42E-05,2.88E-06,-0.4264,2.8425,2.72,2.8425,-0.4264,4.30E-02,-8.54E+06,6.29E+06,-1.18E+06,1.45E+06,-8.54E+06,6.29E+06,0,9.74E-03,4.95E-08,8.46E-04,0,9.74E-03,0,7.86E+08,15085,2.62E+08,0,7.86E+08,-2.42E-05,2.88E-06,-0.4264,2.8425,-8.54E+06,6.29E+06,0,9.74E-03,0,7.86E+08
142,1,1.81E-05,-2.42E-05,2.83E-06,-1.97E-05,-1.87E-05,-2.42E-05,2.83E-06,-0.53291,2.8406,2.7197,2.8406,-0.53291,4.25E-02,-9.96E+06,7.39E+06,-9.92E+05,1.06E+06,-9.96E+06,7.39E+06,0,9.74E-03,5.55E-08,8.46E-04,0,9.74E-03,0,7.87E+08,14697,2.62E+08,0,7.87E+08,-2.42E-05,2.83E-06,-0.53291,2.8406,-9.96E+06,7.39E+06,0,9.74E-03,0,7.87E+08
143,1,1.82E-05,-2.43E-05,2.78E-06,-1.93E-05,-1.83E-05,-2.43E-05,2.78E-06,-0.54424,2.8396,2.7161,2.8396,-0.54424,3.33E-02,-5.77E+06,6.51E+06,-1.03E+06,1.99E+06,-5.77E+06,6.51E+06,0,9.74E-03,5.90E-08,8.46E-04,0,9.74E-03,0,7.87E+08,21395,2.62E+08,0,7.87E+08,-2.43E-05,2.78E-06,-0.54424,2.8396,-5.77E+06,6.51E+06,0,9.74E-03,0,7.87E+08
144,1,1.84E-05,-2.43E-05,2.74E-06,-1.90E-05,-1.80E-05,-2.43E-05,2.74E-06,-0.2542,2.8363,2.7154,2.8363,-0.2542,5.76E-02,-1.32E+06,8.43E+06,-1.26E+06,1.14E+06,-1.32E+06,8.43E+06,0,9.74E-03,4.39E-08,8.46E-04,0,9.74E-03,0,7.88E+08,10904,2.62E+08,0,7.88E+08,-2.43E-05,2.74E-06,-0.2542,2.8363,-1.32E+06,8.43E+06,0,9.74E-03,0,7.88E+08
145,1,1.85E-05,-2.43E-05,2.76E-06,-1.86E-05,-1.76E-05,-2.43E-05,2.76E-06,-4.73E-02,2.8417,2.7157,2.8417,-4.73E-02,0.43151,-6.90E+06,8.97E+06,-1.22E+06,1.45E+06,-6.90E+06,8.97E+06,0,9.75E-03,5.41E-08,8.46E-04,0,9.75E-03,0,7.86E+08,13114,2.62E+08,0,7.86E+08,-2.43E-05,2.76E-06,-4.73E-02,2.8417,-6.90E+06,8.97E+06,0,9.75E-03,0,7.86E+08
146,1,1.86E-05,-2.42E-05,2.81E-06,-1.83E-05,-1.72E-05,-2.42E-05,2.81E-06,-4.17E-02,2.8434,2.7159,2.8434,-4.17E-02,0.58241,-6.58E+06,8.69E+06,-7.30E+05,1.03E+06,-6.58E+06,8.69E+06,0,9.74E-03,1.09E-07,8.46E-04,0,9.74E-03,0,7.87E+08,45322,2.62E+08,0,7.87E+08,-2.42E-05,2.81E-06,-4.17E-02,2.8434,-6.58E+06,8.69E+06,0,9.74E-03,0,7.87E+08
147,1,1.87E-05,-2.42E-05,2.87E-06,-1.79E-05,-1.69E-05,-2.42E-05,2.87E-06,-3.71E-02,2.8418,2.7222,2.8418,-3.71E-02,0.50615,-5.73E+06,2.40E+06,-7.96E+05,7.72E+05,-5.73E+06,2.40E+06,0,9.73E-03,8.32E-08,8.46E-04,0,9.73E-03,0,7.88E+08,25712,2.62E+08,0,7.88E+08,-2.42E-05,2.87E-06,-3.71E-02,2.8418,-5.73E+06,2.40E+06,0,9.73E-03,0,7.88E+08
148,1,1.89E-05,-2.41E-05,2.89E-06,-1.76E-05,-1.65E-05,-2.41E-05,2.89E-06,-0.10701,2.8424,2.7247,2.8424,-0.10701,8.94E-02,-6.70E+06,1.74E+06,-7.66E+05,5.59E+05,-6.70E+06,1.74E+06,0,9.73E-03,3.73E-08,8.46E-04,0,9.73E-03,0,7.88E+08,13368,2.62E+08,0,7.88E+08,-2.41E-05,2.89E-06,-0.10701,2.8424,-6.70E+06,1.74E+06,0,9.73E-03,0,7.88E+08
149,1,1.90E-05,-2.42E-05,2.87E-06,-1.72E-05,-1.61E-05,-2.42E-05,2.87E-06,-0.43009,2.8467,2.7216,2.8467,-0.43009,3.91E-02,-9.67E+06,5.19E+06,-6.57E+05,7.36E+05,-9.67E+06,5.19E+06,0,9.73E-03,4.62E-08,8.46E-04,0,9.73E-03,0,7.87E+08,18175,2.62E+08,0,7.87E+08,-2.42E-05,2.87E-06,-0.43009,2.8467,-9.67E+06,5.19E+06,0,9.73E-03,0,7.87E+08
150,1,1.91E-05,-2.42E-05,2.82E-06,-1.69E-05,-1.58E-05,-2.42E-05,2.82E-06,-0.51127,2.8471,2.7169,2.8471,-0.51127,4.03E-02,-7.16E+06,5.90E+06,-8.75E+05,6.09E+05,-7.16E+06,5.90E+06,0,9.74E-03,7.18E-08,8.46E-04,0,9.74E-03,0,7.87E+08,27577,2.62E+08,0,7.87E+08,-2.42E-05,2.82E-06,-0.51127,2.8471,-7.16E+06,5.90E+06,0,9.74E-03,0,7.87E+08
151,1,1.93E-05,-2.43E-05,2.77E-06,-1.65E-05,-1.54E-05,-2.43E-05,2.77E-06,-0.35092,2.843,2.7144,2.843,-0.35092,3.49E-02,-2.29E+06,8.35E+06,-4.35E+05,1.03E+06,-2.29E+06,8.35E+06,0,9.74E-03,5.56E-08,8.46E-04,0,9.74E-03,0,7.87E+08,17019,2.62E+08,0,7.87E+08,-2.43E-05,2.77E-06,-0.35092,2.843,-2.29E+06,8.35E+06,0,9.74E-03,0,7.87E+08
152,1,1.94E-05,-2.43E-05,2.75E-06,-1.62E-05,-1.51E-05,-2.43E-05,2.75E-06,-6.66E-02,2.8347,2.7134,2.8347,-6.66E-02,0.14337,-8.02E+05,8.87E+06,-7.99E+05,9.59E+05,-8.02E+05,8.87E+06,0,9.74E-03,4.59E-08,8.46E-04,0,9.74E-03,0,7.88E+08,14417,2.62E+08,0,7.88E+08,-2.43E-05,2.75E-06,-6.66E-02,2.8347,-8.02E+05,8.87E+06,0,9.74E-03,0,7.88E+08
153,1,1.95E-05,-2.43E-05,2.78E-06,-1.58E-05,-1.47E-05,-2.43E-05,2.78E-06,-4.20E-02,2.836,2.7166,2.836,-4.20E-02,0.43252,-2.67E+06,7.66E+06,-4.62E+05,5.25E+05,-2.67E+06,7.66E+06,0,9.74E-03,1.21E-07,8.46E-04,0,9.74E-03,0,7.87E+08,53052,2.62E+08,0,7.87E+08,-2.43E-05,2.78E-06,-4.20E-02,2.836,-2.67E+06,7.66E+06,0,9.74E-03,0,7.87E+08
154,1,1.96E-05,-2.42E-05,2.83E-06,-1.55E-05,-1.43E-05,-2.42E-05,2.83E-06,-3.88E-02,2.8375,2.718,2.8375,-3.88E-02,0.46798,-3.63E+06,3.09E+06,-7.07E+05,5.70E+05,-3.63E+06,3.09E+06,0,9.74E-03,5.47E-08,8.46E-04,0,9.74E-03,0,7.87E+08,14964,2.62E+08,0,7.87E+08,-2.42E-05,2.83E-06,-3.88E-02,2.8375,-3.63E+06,3.09E+06,0,9.74E-03,0,7.87E+08
155,1,1.98E-05,-2.42E-05,2.87E-06,-1.51E-05,-1.40E-05,-2.42E-05,2.87E-06,-3.73E-02,2.8437,2.7197,2.8437,-3.73E-02,0.28276,-4.95E+06,1.83E+06,-7.34E+05,3.70E+05,-4.95E+06,1.83E+06,0,9.74E-03,7.09E-08,8.46E-04,0,9.74E-03,0,7.87E+08,26440,2.62E+08,0,7.87E+08,-2.42E-05,2.87E-06,-3.73E-02,2.8437,-4.95E+06,1.83E+06,0,9.74E-03,0,7.87E+08
156,1,1.99E-05,-2.42E-05,2.87E-06,-1.48E-05,-1.36E-05,-2.42E-05,2.87E-06,-0.13985,2.8487,2.723,2.8487,-0.13985,5.10E-02,-5.37E+06,1.42E+06,-4.94E+05,3.47E+05,-5.37E+06,1.42E+06,0,9.74E-03,6.58E-08,8.46E-04,0,9.74E-03,0,7.87E+08,26888,2.62E+08,0,7.87E+08,-2.42E-05,2.87E-06,-0.13985,2.8487,-5.37E+06,1.42E+06,0,9.74E-03,0,7.87E+08
157,1,2.00E-05,-2.42E-05,2.85E-06,-1.44E-05,-1.32E-05,-2.42E-05,2.85E-06,-0.36675,2.8462,2.7242,2.8462,-0.36675,3.77E-02,-5.13E+06,1.78E+06,-5.80E+05,3.82E+05,-5.13E+06,1.78E+06,0,9.74E-03,4.96E-08,8.46E-04,0,9.74E-03,0,7.86E+08,17887,2.62E+08,0,7.86E+08,-2.42E-05,2.85E-06,-0.36675,2.8462,-5.13E+06,1.78E+06,0,9.74E-03,0,7.86E+08
158,1,2.02E-05,-2.42E-05,2.80E-06,-1.41E-05,-1.29E-05,-2.42E-05,2.80E-06,-0.44714,2.8432,2.7217,2.8432,-0.44714,3.93E-02,-2.63E+06,3.43E+06,-2.00E+05,8.24E+05,-2.63E+06,3.43E+06,0,9.74E-03,5.44E-08,8.46E-04,0,9.74E-03,0,7.87E+08,18804,2.62E+08,0,7.87E+08,-2.42E-05,2.80E-06,-0.44714,2.8432,-2.63E+06,3.43E+06,0,9.74E-03,0,7.87E+08
159,1,2.03E-05,-2.43E-05,2.77E-06,-1.38E-05,-1.25E-05,-2.43E-05,2.77E-06,-0.20278,2.8437,2.717,2.8437,-0.20278,3.56E-02,-1.06E+06,5.22E+06,-6.59E+05,4.83E+05,-1.06E+06,5.22E+06,0,9.74E-03,5.08E-08,8.46E-04,0,9.74E-03,0,7.87E+08,17071,2.62E+08,0,7.87E+08,-2.43E-05,2.77E-06,-0.20278,2.8437,-1.06E+06,5.22E+06,0,9.74E-03,0,7.87E+08
160,1,2.04E-05,-2.43E-05,2.77E-06,-1.34E-05,-1.21E-05,-2.43E-05,2.77E-06,-4.63E-02,2.8398,2.7128,2.8398,-4.63E-02,0.18397,-1.84E+06,5.31E+06,-3.27E+05,5.08E+05,-1.84E+06,5.31E+06,0,9.74E-03,2.87E-08,8.46E-04,0,9.74E-03,0,7.87E+08,5984,2.62E+08,0,7.87E+08,-2.43E-05,2.77E-06,-4.63E-02,2.8398,-1.84E+06,5.31E+06,0,9.74E-03,0,7.87E+08
161,1,2.05E-05,-2.42E-05,2.80E-06,-1.31E-05,-1.18E-05,-2.42E-05,2.80E-06,-4.34E-02,2.8371,2.7132,2.8371,-4.34E-02,0.38215,-2.37E+06,3.66E+06,-3.88E+05,2.88E+05,-2.37E+06,3.66E+06,0,9.74E-03,3.77E-08,8.46E-04,0,9.74E-03,0,7.87E+08,11856,2.62E+08,0,7.87E+08,-2.42E-05,2.80E-06,-4.34E-02,2.8371,-2.37E+06,3.66E+06,0,9.74E-03,0,7.87E+08
162,1,2.07E-05,-2.42E-05,2.84E-06,-1.27E-05,-1.14E-05,-2.42E-05,2.84E-06,-4.17E-02,2.8404,2.7145,2.8404,-4.17E-02,0.33577,-3.42E+06,1.94E+06,-2.91E+05,3.21E+05,-3.42E+06,1.94E+06,0,9.74E-03,5.24E-08,8.46E-04,0,9.74E-03,0,7.87E+08,17499,2.62E+08,0,7.87E+08,-2.42E-05,2.84E-06,-4.17E-02,2.8404,-3.42E+06,1.94E+06,0,9.74E-03,0,7.87E+08
163,1,2.08E-05,-2.42E-05,2.86E-06,-1.24E-05,-1.10E-05,-2.42E-05,2.86E-06,-4.12E-02,2.8435,2.7196,2.8435,-4.12E-02,0.16374,-4.26E+06,1.19E+06,-1.72E+05,1.98E+05,-4.26E+06,1.19E+06,0,9.74E-03,4.77E-08,8.46E-04,0,9.74E-03,0,7.87E+08,17724,2.62E+08,0,7.87E+08,-2.42E-05,2.86E-06,-4.12E-02,2.8435,-4.26E+06,1.19E+06,0,9.74E-03,0,7.87E+08
164,1,2.09E-05,-2.42E-05,2.86E-06,-1.20E-05,-1.07E-05,-2.42E-05,2.86E-06,-0.18539,2.8422,2.7246,2.8422,-0.18539,4.59E-02,-4.58E+06,2.25E+06,-3.00E+05,2.41E+05,-4.58E+06,2.25E+06,0,9.74E-03,4.73E-08,8.46E-04,0,9.74E-03,0,7.87E+08,17406,2.62E+08,0,7.87E+08,-2.42E-05,2.86E-06,-0.18539,2.8422,-4.58E+06,2.25E+06,0,9.74E-03,0,7.87E+08
165,1,2.11E-05,-2.42E-05,2.83E-06,-1.17E-05,-1.03E-05,-2.42E-05,2.83E-06,-0.30736,2.8433,2.7244,2.8433,-0.30736,4.04E-02,-2.98E+06,1.96E+06,-2.76E+05,4.07E+05,-2.98E+06,1.96E+06,0,9.74E-03,4.78E-08,8.46E-04,0,9.74E-03,0,7.87E+08,11768,2.62E+08,0,7.87E+08,-2.42E-05,2.83E-06,-0.30736,2.8433,-2.98E+06,1.96E+06,0,9.74E-03,0,7.87E+08
166,1,2.12E-05,-2.42E-05,2.79E-06,-1.13E-05,-9.95E-06,-2.42E-05,2.79E-06,-0.30593,2.8462,2.7227,2.8462,-0.30593,3.28E-02,-1.64E+06,3.01E+06,-5.50E+05,3.50E+05,-1.64E+06,3.01E+06,0,9.74E-03,6.26E-08,8.46E-04,0,9.74E-03,0,7.87E+08,14518,2.62E+08,0,7.87E+08,-2.42E-05,2.79E-06,-0.30593,2.8462,-1.64E+06,3.01E+06,0,9.74E-03,0,7.87E+08
167,1,2.13E-05,-2.43E-05,2.77E-06,-1.10E-05,-9.58E-06,-2.43E-05,2.77E-06,-0.11438,2.8467,2.7184,2.8467,-0.11438,3.01E-02,-7.16E+05,4.21E+06,-3.97E+05,3.78E+05,-7.16E+05,4.21E+06,0,9.74E-03,7.02E-08,8.46E-04,0,9.74E-03,0,7.87E+08,19470,2.62E+08,0,7.87E+08,-2.43E-05,2.77E-06,-0.11438,2.8467,-7.16E+05,4.21E+06,0,9.74E-03,0,7.87E+08
168,1,2.14E-05,-2.42E-05,2.78E-06,-1.06E-05,-9.22E-06,-2.42E-05,2.78E-06,-3.51E-02,2.842,2.712,2.842,-3.51E-02,0.21887,-1.21E+06,3.27E+06,-2.44E+05,2.54E+05,-1.21E+06,3.27E+06,0,9.74E-03,5.43E-08,8.46E-04,0,9.74E-03,0,7.87E+08,19968,2.62E+08,0,7.87E+08,-2.42E-05,2.78E-06,-3.51E-02,2.842,-1.21E+06,3.27E+06,0,9.74E-03,0,7.87E+08
169,1,2.16E-05,-2.42E-05,2.81E-06,-1.03E-05,-8.85E-06,-2.42E-05,2.81E-06,-3.55E-02,2.8376,2.7116,2.8376,-3.55E-02,0.29353,-2.19E+06,1.63E+06,-1.18E+05,1.95E+05,-2.19E+06,1.63E+06,0,9.74E-03,7.50E-08,8.46E-04,0,9.74E-03,0,7.87E+08,26727,2.62E+08,0,7.87E+08,-2.42E-05,2.81E-06,-3.55E-02,2.8376,-2.19E+06,1.63E+06,0,9.74E-03,0,7.87E+08
170,1,2.17E-05,-2.42E-05,2.84E-06,-9.91E-06,-8.49E-06,-2.42E-05,2.84E-06,-3.44E-02,2.8362,2.7172,2.8362,-3.44E-02,0.20399,-3.99E+06,1.54E+06,-1.25E+05,1.96E+05,-3.99E+06,1.54E+06,0,9.74E-03,3.66E-08,8.46E-04,0,9.74E-03,0,7.87E+08,11748,2.62E+08,0,7.87E+08,-2.42E-05,2.84E-06,-3.44E-02,2.8362,-3.99E+06,1.54E+06,0,9.74E-03,0,7.87E+08
171,1,2.18E-05,-2.42E-05,2.85E-06,-9.56E-06,-8.12E-06,-2.42E-05,2.85E-06,-5.03E-02,2.8381,2.7194,2.8381,-5.03E-02,8.94E-02,-3.33E+06,1.20E+06,-2.67E+05,1.75E+05,-3.33E+06,1.20E+06,0,9.74E-03,5.88E-08,8.46E-04,0,9.74E-03,0,7.87E+08,14694,2.62E+08,0,7.87E+08,-2.42E-05,2.85E-06,-5.03E-02,2.8381,-3.33E+06,1.20E+06,0,9.74E-03,0,7.87E+08
172,1,2.20E-05,-2.42E-05,2.84E-06,-9.21E-06,-7.76E-06,-2.42E-05,2.84E-06,-0.1973,2.8429,2.7214,2.8429,-0.1973,4.32E-02,-3.09E+06,1.63E+06,-1.67E+05,3.24E+05,-3.09E+06,1.63E+06,0,9.74E-03,4.16E-08,8.46E-04,0,9.74E-03,0,7.87E+08,11491,2.62E+08,0,7.87E+08,-2.42E-05,2.84E-06,-0.1973,2.8429,-3.09E+06,1.63E+06,0,9.74E-03,0,7.87E+08
173,1,2.21E-05,-2.42E-05,2.82E-06,-8.86E-06,-7.40E-06,-2.42E-05,2.82E-06,-0.25622,2.8429,2.721,2.8429,-0.25622,4.06E-02,-2.60E+06,1.97E+06,-3.55E+05,1.75E+05,-2.60E+06,1.97E+06,0,9.74E-03,4.25E-08,8.46E-04,0,9.74E-03,0,7.87E+08,15522,2.62E+08,0,7.87E+08,-2.42E-05,2.82E-06,-0.25622,2.8429,-2.60E+06,1.97E+06,0,9.74E-03,0,7.87E+08
174,1,2.22E-05,-2.42E-05,2.79E-06,-8.51E-06,-7.03E-06,-2.42E-05,2.79E-06,-0.20281,2.8454,2.7217,2.8454,-0.20281,3.92E-02,-1.82E+06,3.01E+06,-1.41E+05,3.78E+05,-1.82E+06,3.01E+06,0,9.74E-03,5.52E-08,8.46E-04,0,9.74E-03,0,7.87E+08,16442,2.62E+08,0,7.87E+08,-2.42E-05,2.79E-06,-0.20281,2.8454,-1.82E+06,3.01E+06,0,9.74E-03,0,7.87E+08
175,1,2.23E-05,-2.42E-05,2.78E-06,-8.16E-06,-6.67E-06,-2.42E-05,2.78E-06,-3.81E-02,2.8445,2.7201,2.8445,-3.81E-02,8.32E-02,-1.47E+06,3.71E+06,-2.44E+05,1.47E+05,-1.47E+06,3.71E+06,0,9.74E-03,2.96E-08,8.46E-04,0,9.74E-03,0,7.87E+08,7361.1,2.62E+08,0,7.87E+08,-2.42E-05,2.78E-06,-3.81E-02,2.8445,-1.47E+06,3.71E+06,0,9.74E-03,0,7.87E+08
176,1,2.25E-05,-2.42E-05,2.80E-06,-7.81E-06,-6.30E-06,-2.42E-05,2.80E-06,-3.83E-02,2.8438,2.7148,2.8438,-3.83E-02,0.23264,-1.11E+06,2.06E+06,-1.25E+05,1.48E+05,-1.11E+06,2.06E+06,0,9.74E-03,5.31E-08,8.46E-04,0,9.74E-03,0,7.87E+08,12492,2.62E+08,0,7.87E+08,-2.42E-05,2.80E-06,-3.83E-02,2.8438,-1.11E+06,2.06E+06,0,9.74E-03,0,7.87E+08
177,1,2.26E-05,-2.42E-05,2.83E-06,-7.46E-06,-5.94E-06,-2.42E-05,2.83E-06,-5.10E-02,2.8406,2.7128,2.8406,-5.10E-02,0.29342,-2.13E+06,1.52E+06,-1.26E+05,1.52E+05,-2.13E+06,1.52E+06,0,9.74E-03,3.46E-08,8.46E-04,0,9.74E-03,0,7.87E+08,12202,2.62E+08,0,7.87E+08,-2.42E-05,2.83E-06,-5.10E-02,2.8406,-2.13E+06,1.52E+06,0,9.74E-03,0,7.87E+08
178,1,2.27E-05,-2.42E-05,2.85E-06,-7.12E-06,-5.57E-06,-2.42E-05,2.85E-06,-4.01E-02,2.8408,2.7171,2.8408,-4.01E-02,0.12414,-3.18E+06,6.68E+05,-1.81E+05,1.30E+05,-3.18E+06,6.68E+05,0,9.74E-03,3.87E-08,8.46E-04,0,9.74E-03,0,7.87E+08,7979.6,2.62E+08,0,7.87E+08,-2.42E-05,2.85E-06,-4.01E-02,2.8408,-3.18E+06,6.68E+05,0,9.74E-03,0,7.87E+08
179,1,2.29E-05,-2.42E-05,2.84E-06,-6.77E-06,-5.21E-06,-2.42E-05,2.84E-06,-0.14464,2.8417,2.7195,2.8417,-0.14464,3.73E-02,-2.68E+06,6.39E+05,-1.01E+05,2.28E+05,-2.68E+06,6.39E+05,0,9.74E-03,5.23E-08,8.46E-04,0,9.74E-03,0,7.87E+08,20607,2.62E+08,0,7.87E+08,-2.42E-05,2.84E-06,-0.14464,2.8417,-2.68E+06,6.39E+05,0,9.74E-03,0,7.87E+08
180,1,2.30E-05,-2.42E-05,2.82E-06,-6.42E-06,-4.84E-06,-2.42E-05,2.82E-06,-0.23301,2.841,2.7218,2.841,-0.23301,4.32E-02,-1.83E+06,2.21E+06,-2.36E+05,86743,-1.83E+06,2.21E+06,0,9.74E-03,4.73E-08,8.46E-04,0,9.74E-03,0,7.87E+08,10207,2.62E+08,0,7.87E+08,-2.42E-05,2.82E-06,-0.23301,2.841,-1.83E+06,2.21E+06,0,9.74E-03,0,7.87E+08
181,1,2.31E-05,-2.42E-05,2.80E-06,-6.07E-06,-4.48E-06,-2.42E-05,2.80E-06,-0.20592,2.8399,2.7208,2.8399,-0.20592,3.65E-02,-1.21E+06,2.24E+06,-1.44E+05,2.09E+05,-1.21E+06,2.24E+06,0,9.74E-03,4.10E-08,8.46E-04,0,9.74E-03,0,7.87E+08,16237,2.62E+08,0,7.87E+08,-2.42E-05,2.80E-06,-0.20592,2.8399,-1.21E+06,2.24E+06,0,9.74E-03,0,7.87E+08
182,1,2.32E-05,-2.42E-05,2.79E-06,-5.72E-06,-4.11E-06,-2.42E-05,2.79E-06,-9.11E-02,2.8431,2.7198,2.8431,-9.11E-02,3.57E-02,-7.35E+05,3.05E+06,-1.84E+05,1.27E+05,-7.35E+05,3.05E+06,0,9.74E-03,2.94E-08,8.46E-04,0,9.74E-03,0,7.87E+08,7612.5,2.62E+08,0,7.87E+08,-2.42E-05,2.79E-06,-9.11E-02,2.8431,-7.35E+05,3.05E+06,0,9.74E-03,0,7.87E+08
183,1,2.34E-05,-2.42E-05,2.80E-06,-5.37E-06,-3.75E-06,-2.42E-05,2.80E-06,-3.88E-02,2.8434,2.7209,2.8434,-3.88E-02,0.15299,-7.60E+05,2.46E+06,-1.03E+05,86420,-7.60E+05,2.46E+06,0,9.74E-03,5.35E-08,8.46E-04,0,9.74E-03,0,7.87E+08,16461,2.62E+08,0,7.87E+08,-2.42E-05,2.80E-06,-3.88E-02,2.8434,-7.60E+05,2.46E+06,0,9.74E-03,0,7.87E+08
184,1,2.35E-05,-2.42E-05,2.82E-06,-5.02E-06,-3.38E-06,-2.42E-05,2.82E-06,-4.03E-02,2.846,2.7195,2.846,-4.03E-02,0.2284,-1.44E+06,2.17E+06,-73019,1.15E+05,-1.44E+06,2.17E+06,0,9.74E-03,5.64E-08,8.46E-04,0,9.74E-03,0,7.87E+08,19567,2.62E+08,0,7.87E+08,-2.42E-05,2.82E-06,-4.03E-02,2.846,-1.44E+06,2.17E+06,0,9.74E-03,0,7.87E+08
185,1,2.36E-05,-2.42E-05,2.84E-06,-4.67E-06,-3.02E-06,-2.42E-05,2.84E-06,-3.39E-02,2.8442,2.7149,2.8442,-3.39E-02,0.17096,-2.38E+06,6.37E+05,-1.19E+05,1.41E+05,-2.38E+06,6.37E+05,0,9.74E-03,3.24E-08,8.46E-04,0,9.74E-03,0,7.87E+08,11082,2.62E+08,0,7.87E+08,-2.42E-05,2.84E-06,-3.39E-02,2.8442,-2.38E+06,6.37E+05,0,9.74E-03,0,7.87E+08
186,1,2.37E-05,-2.42E-05,2.85E-06,-4.32E-06,-2.65E-06,-2.42E-05,2.85E-06,-7.59E-02,2.842,2.7161,2.842,-7.59E-02,2.68E-02,-2.75E+06,7.06E+05,-87111,1.90E+05,-2.75E+06,7.06E+05,0,9.74E-03,2.49E-08,8.46E-04,0,9.74E-03,0,7.87E+08,7693.8,2.62E+08,0,7.87E+08,-2.42E-05,2.85E-06,-7.59E-02,2.842,-2.75E+06,7.06E+05,0,9.74E-03,0,7.87E+08
187,1,2.39E-05,-2.42E-05,2.83E-06,-3.97E-06,-2.29E-06,-2.42E-05,2.83E-06,-0.20898,2.8393,2.7204,2.8393,-0.20898,2.62E-02,-2.25E+06,8.01E+05,-2.03E+05,87583,-2.25E+06,8.01E+05,0,9.74E-03,6.34E-08,8.46E-04,0,9.74E-03,0,7.87E+08,22284,2.62E+08,0,7.87E+08,-2.42E-05,2.83E-06,-0.20898,2.8393,-2.25E+06,8.01E+05,0,9.74E-03,0,7.87E+08
188,1,2.40E-05,-2.42E-05,2.81E-06,-3.62E-06,-1.92E-06,-2.42E-05,2.81E-06,-0.22028,2.8391,2.7202,2.8391,-0.22028,4.14E-02,-1.26E+06,2.19E+06,-1.23E+05,95626,-1.26E+06,2.19E+06,0,9.74E-03,4.14E-08,8.46E-04,0,9.74E-03,0,7.87E+08,11498,2.62E+08,0,7.87E+08,-2.42E-05,2.81E-06,-0.22028,2.8391,-1.26E+06,2.19E+06,0,9.74E-03,0,7.87E+08
189,1,2.41E-05,-2.42E-05,2.79E-06,-3.27E-06,-1.56E-06,-2.42E-05,2.79E-06,-0.11923,2.8392,2.7193,2.8392,-0.11923,3.31E-02,-6.66E+05,2.71E+06,-1.41E+05,1.04E+05,-6.66E+05,2.71E+06,0,9.74E-03,1.06E-07,8.46E-04,0,9.74E-03,0,7.87E+08,43466,2.62E+08,0,7.87E+08,-2.42E-05,2.79E-06,-0.11923,2.8392,-6.66E+05,2.71E+06,0,9.74E-03,0,7.87E+08
190,1,2.43E-05,-2.42E-05,2.79E-06,-2.92E-06,-1.20E-06,-2.42E-05,2.79E-06,-2.21E-02,2.8408,2.7204,2.8408,-2.21E-02,0.1062,-7.57E+05,2.07E+06,-1.09E+05,98767,-7.57E+05,2.07E+06,0,9.74E-03,5.43E-08,8.46E-04,0,9.74E-03,0,7.87E+08,16381,2.62E+08,0,7.87E+08,-2.42E-05,2.79E-06,-2.21E-02,2.8408,-7.57E+05,2.07E+06,0,9.74E-03,0,7.87E+08
191,1,2.44E-05,-2.42E-05,2.81E-06,-2.58E-06,-8.30E-07,-2.42E-05,2.81E-06,-2.97E-02,2.8446,2.7175,2.8446,-2.97E-02,0.21057,-9.44E+05,1.79E+06,-76989,97809,-9.44E+05,1.79E+06,0,9.74E-03,7.40E-08,8.46E-04,0,9.74E-03,0,7.87E+08,30266,2.62E+08,0,7.87E+08,-2.42E-05,2.81E-06,-2.97E-02,2.8446,-9.44E+05,1.79E+06,0,9.74E-03,0,7.87E+08
192,1,2.45E-05,-2.42E-05,2.83E-06,-2.23E-06,-4.65E-07,-2.42E-05,2.83E-06,-3.57E-02,2.8444,2.7155,2.8444,-3.57E-02,0.22252,-1.76E+06,9.73E+05,-95985,1.24E+05,-1.76E+06,9.73E+05,0,9.74E-03,7.30E-08,8.46E-04,0,9.74E-03,0,7.87E+08,28584,2.62E+08,0,7.87E+08,-2.42E-05,2.83E-06,-3.57E-02,2.8444,-1.76E+06,9.73E+05,0,9.74E-03,0,7.87E+08
193,1,2.46E-05,-2.42E-05,2.85E-06,-1.88E-06,-1.00E-07,-2.42E-05,2.85E-06,-3.66E-02,2.8442,2.7195,2.8442,-3.66E-02,8.26E-02,-2.36E+06,8.23E+05,-90020,1.36E+05,-2.36E+06,8.23E+05,0,9.74E-03,5.91E-08,8.46E-04,0,9.74E-03,0,7.87E+08,14466,2.62E+08,0,7.87E+08,-2.42E-05,2.85E-06,-3.66E-02,2.8442,-2.36E+06,8.23E+05,0,9.74E-03,0,7.87E+08
194,1,2.48E-05,-2.42E-05,2.85E-06,-1.53E-06,2.65E-07,-2.42E-05,2.85E-06,-0.1631,2.8417,2.722,2.8417,-0.1631,2.65E-02,-2.34E+06,5.21E+05,-85324,1.12E+05,-2.34E+06,5.21E+05,0,9.74E-03,5.11E-08,8.46E-04,0,9.74E-03,0,7.87E+08,20633,2.62E+08,0,7.87E+08,-2.42E-05,2.85E-06,-0.1631,2.8417,-2.34E+06,5.21E+05,0,9.74E-03,0,7.87E+08
195,1,2.49E-05,-2.42E-05,2.82E-06,-1.18E-06,6.29E-07,-2.42E-05,2.82E-06,-0.24256,2.8408,2.7213,2.8408,-0.24256,3.16E-02,-1.40E+06,1.11E+06,-1.30E+05,93551,-1.40E+06,1.11E+06,0,9.74E-03,8.31E-08,8.46E-04,0,9.74E-03,0,7.87E+08,35874,2.62E+08,0,7.87E+08,-2.42E-05,2.82E-06,-0.24256,2.8408,-1.40E+06,1.11E+06,0,9.74E-03,0,7.87E+08
196,1,2.50E-05,-2.42E-05,2.80E-06,-8.29E-07,9.94E-07,-2.42E-05,2.80E-06,-0.20139,2.8428,2.7183,2.8428,-0.20139,3.38E-02,-7.37E+05,2.10E+06,-93274,85901,-7.37E+05,2.10E+06,0,9.74E-03,3.19E-08,8.46E-04,0,9.74E-03,0,7.87E+08,11838,2.62E+08,0,7.87E+08,-2.42E-05,2.80E-06,-0.20139,2.8428,-7.37E+05,2.10E+06,0,9.74E-03,0,7.87E+08
197,1,2.52E-05,-2.42E-05,2.78E-06,-4.80E-07,1.36E-06,-2.42E-05,2.78E-06,-5.90E-02,2.8414,2.7168,2.8414,-5.90E-02,3.40E-02,-6.96E+05,3.08E+06,-1.00E+05,84809,-6.96E+05,3.08E+06,0,9.74E-03,5.77E-08,8.46E-04,0,9.74E-03,0,7.87E+08,15549,2.62E+08,0,7.87E+08,-2.42E-05,2.78E-06,-5.90E-02,2.8414,-6.96E+05,3.08E+06,0,9.74E-03,0,7.87E+08
198,1,2.53E-05,-2.42E-05,2.79E-06,-1.31E-07,1.72E-06,-2.42E-05,2.79E-06,-2.55E-02,2.8398,2.7189,2.8398,-2.55E-02,0.18933,-7.45E+05,2.27E+06,-76399,1.21E+05,-7.45E+05,2.27E+06,0,9.74E-03,1.14E-07,8.46E-04,0,9.74E-03,0,7.87E+08,37765,2.62E+08,0,7.87E+08,-2.42E-05,2.79E-06,-2.55E-02,2.8398,-7.45E+05,2.27E+06,0,9.74E-03,0,7.87E+08
199,1,2.54E-05,-2.42E-05,2.82E-06,2.18E-07,2.09E-06,-2.42E-05,2.82E-06,-3.42E-02,2.8386,2.7203,2.8386,-3.42E-02,0.26206,-1.59E+06,1.04E+06,-61370,1.23E+05,-1.59E+06,1.04E+06,0,9.74E-03,6.12E-08,8.46E-04,0,9.74E-03,0,7.87E+08,19773,2.62E+08,0,7.87E+08,-2.42E-05,2.82E-06,-3.42E-02,2.8386,-1.59E+06,1.04E+06,0,9.74E-03,0,7.87E+08
200,1,2.55E-05,-2.42E-05,2.84E-06,5.67E-07,2.45E-06,-2.42E-05,2.84E-06,-3.02E-02,2.8438,2.7196,2.8438,-3.02E-02,0.19301,-2.19E+06,5.61E+05,-84375,80097,-2.19E+06,5.61E+05,0,9.74E-03,2.33E-08,8.46E-04,0,9.74E-03,0,7.87E+08,8293.4,2.62E+08,0,7.87E+08,-2.42E-05,2.84E-06,-3.02E-02,2.8438,-2.19E+06,5.61E+05,0,9.74E-03,0,7.87E+08
201,1,2.57E-05,-2.42E-05,2.85E-06,9.17E-07,2.82E-06,-2.42E-05,2.85E-06,-5.43E-02,2.8462,2.7197,2.8462,-5.43E-02,3.43E-02,-2.56E+06,5.34E+05,-88848,96674,-2.56E+06,5.34E+05,0,9.74E-03,5.17E-08,8.46E-04,0,9.74E-03,0,7.87E+08,20816,2.62E+08,0,7.87E+08,-2.42E-05,2.85E-06,-5.43E-02,2.8462,-2.56E+06,5.34E+05,0,9.74E-03,0,7.87E+08
202,1,6.00E-05,,,,,,,,,,,,,,,,,,,,,,,,,,,,,,,,,,,,,,,,
