Unnamed: 0,Steps,Time [s],[A] Directional Deformation Flexible (Min) [m],[B] Directional Deformation Flexible (Max) [m],[C] Directional Deformation SiC (Min) [m],[D] Directional Deformation SiC (Max) [m],[E] Directional Deformation Asperity (Min) [m],[F] Directional Deformation Asperity (Max) [m],[G] Directional Velocity Flexible (Min) [m/s],[H] Directional Velocity Flexible (Max) [m/s],[I] Directional Velocity SiC (Min) [m/s],[J] Directional Velocity SiC (Max) [m/s],[K] Directional Velocity Asperity (Min) [m/s],[L] Directional Velocity Asperity (Max) [m/s],[M] Directional Acceleration Flexible (Min) [m/s²],[N] Directional Acceleration Flexible (Max) [m/s²],[O] Directional Acceleration SiC (Min) [m/s²],[P] Directional Acceleration SiC (Max) [m/s²],[Q] Directional Acceleration Asperity (Min) [m/s²],[R] Directional Acceleration Asperity (Max) [m/s²],[S] Equivalent Elastic Strain Flexible (Min) [m/m],[T] Equivalent Elastic Strain Flexible (Max) [m/m],[U] Equivalent Elastic Strain SiC (Min) [m/m],[V] Equivalent Elastic Strain SiC (Max) [m/m],[W] Equivalent Elastic Strain Asperity (Min) [m/m],[X] Equivalent Elastic Strain Asperity (Max) [m/m],[Y] Equivalent Stress Flexible (Min) [Pa],[Z] Equivalent Stress Flexible (Max) [Pa],[AA] Equivalent Stress SiC (Min) [Pa],[AB] Equivalent Stress SiC (Max) [Pa],[AC] Equivalent Stress Asperity (Min) [Pa],[AD] Equivalent Stress Asperity (Max) [Pa],[AE] Directional Deformation 4 (Min) [m],[AF] Directional Deformation 4 (Max) [m],[AG] Directional Velocity 4 (Min) [m/s],[AH] Directional Velocity 4 (Max) [m/s],[AI] Directional Acceleration (Min) [m/s²],[AJ] Directional Acceleration (Max) [m/s²],[AK] Equivalent Elastic Strain 4 (Min) [m/m],[AL] Equivalent Elastic Strain 4 (Max) [m/m],[AM] Equivalent Stress 4 (Min) [Pa],[AN] Equivalent Stress 4 (Max) [Pa]
1,1,1.18E-38,0,0,0,0,0,0,-25,0,-25,-25,0,0,0,0,0,0,0,0,0,0,0,0,0,0,0,0,0,0,0,0,0,0,-25,0,0,0,0,0,0,0
2,1,1.26E-07,-3.15E-06,1.49E-08,-3.15E-06,-3.04E-06,-1.56E-06,1.49E-08,-25.626,0.2727,-25.626,-22.618,-20.9,0.2727,-7.40E+08,2.94E+08,-7.40E+08,2.94E+08,-1.42E+08,2.00E+08,0,1.00E-02,0,5.90E-04,0,1.00E-02,0,6.02E+08,0,1.22E+08,0,6.02E+08,-3.15E-06,1.49E-08,-25.626,0.2727,-7.40E+08,2.94E+08,0,1.00E-02,0,6.02E+08
3,1,2.54E-07,-6.36E-06,6.24E-10,-6.36E-06,-6.10E-06,-4.63E-06,6.24E-10,-25.729,1.2656,-25.729,-21.956,-23.741,1.2656,-4.55E+08,4.12E+08,-4.55E+08,4.12E+08,-2.70E+08,9.14E+07,0,1.21E-02,1.24E-09,9.37E-04,0,1.21E-02,0,8.23E+08,247.18,2.58E+08,0,8.23E+08,-6.36E-06,6.24E-10,-25.729,1.2656,-4.55E+08,4.12E+08,0,1.21E-02,0,8.23E+08
4,1,3.83E-07,-9.57E-06,2.35E-09,-9.57E-06,-8.98E-06,-7.82E-06,2.35E-09,-27.095,0.36882,-25.96,-19.208,-27.095,0.36882,-4.32E+08,7.64E+08,-4.32E+08,6.32E+08,-3.34E+08,7.64E+08,0,1.24E-02,2.98E-08,2.26E-03,0,1.24E-02,0,9.57E+08,13275,5.84E+08,0,9.57E+08,-9.57E-06,2.35E-09,-27.095,0.36882,-4.32E+08,7.64E+08,0,1.24E-02,0,9.57E+08
5,1,5.11E-07,-1.28E-05,3.38E-09,-1.28E-05,-1.19E-05,-1.12E-05,3.38E-09,-25.546,3.60E-02,-25.546,-23.191,-24.75,3.60E-02,-2.51E+08,2.20E+08,-1.51E+08,2.20E+08,-2.51E+08,1.84E+08,0,1.25E-02,1.81E-07,2.77E-03,0,1.25E-02,0,1.08E+09,75555,7.66E+08,0,1.08E+09,-1.28E-05,3.38E-09,-25.546,3.60E-02,-2.51E+08,2.20E+08,0,1.25E-02,0,1.08E+09
6,1,6.40E-07,-1.60E-05,7.48E-09,-1.60E-05,-1.49E-05,-1.47E-05,7.48E-09,-25.225,4.50E-02,-25.225,-22.312,-24.945,4.50E-02,-6.88E+08,6.88E+08,-4.22E+08,5.42E+08,-6.88E+08,6.88E+08,0,1.26E-02,5.59E-07,2.88E-03,0,1.26E-02,0,1.22E+09,2.35E+05,9.97E+08,0,1.22E+09,-1.60E-05,7.48E-09,-25.225,4.50E-02,-6.88E+08,6.88E+08,0,1.26E-02,0,1.22E+09
7,1,7.68E-07,-1.92E-05,1.10E-08,-1.92E-05,-1.80E-05,-1.82E-05,1.10E-08,-26.922,7.21E-02,-26.467,-22.015,-26.922,7.21E-02,-2.47E+08,2.67E+08,-2.47E+08,2.67E+08,-1.92E+08,1.57E+08,0,1.27E-02,1.04E-06,4.86E-03,0,1.27E-02,0,1.27E+09,3.93E+05,1.27E+09,0,1.25E+09,-1.92E-05,1.10E-08,-26.922,7.21E-02,-2.47E+08,2.67E+08,0,1.27E-02,0,1.27E+09
8,1,8.96E-07,-2.24E-05,1.59E-08,-2.24E-05,-2.08E-05,-2.16E-05,1.59E-08,-26.541,2.3946,-25.411,-22.108,-26.541,2.3946,-1.71E+08,1.32E+08,-1.71E+08,1.32E+08,-6.25E+07,7.69E+07,0,1.27E-02,1.17E-06,7.41E-03,0,1.27E-02,0,1.71E+09,3.59E+05,1.71E+09,0,1.27E+09,-2.24E-05,1.59E-08,-26.541,2.3946,-1.71E+08,1.32E+08,0,1.27E-02,0,1.71E+09
9,1,1.02E-06,-2.56E-05,1.38E-08,-2.56E-05,-2.39E-05,-2.47E-05,1.38E-08,-25.941,1.9682,-25.358,-21.71,-25.941,1.9682,-2.48E+08,1.27E+08,-2.48E+08,1.20E+08,-1.02E+08,1.27E+08,0,1.27E-02,1.52E-06,7.22E-03,0,1.27E-02,0,1.89E+09,5.09E+05,1.89E+09,0,1.35E+09,-2.56E-05,1.38E-08,-25.941,1.9682,-2.48E+08,1.27E+08,0,1.27E-02,0,1.89E+09
10,1,1.15E-06,-2.87E-05,1.28E-08,-2.87E-05,-2.70E-05,-2.79E-05,1.28E-08,-29.93,3.4294,-25.041,-22.694,-29.93,3.4294,-1.89E+08,1.32E+08,-9.71E+07,1.32E+08,-1.89E+08,9.34E+07,0,1.27E-02,1.97E-06,6.80E-03,0,1.27E-02,0,2.10E+09,5.63E+05,2.10E+09,0,1.36E+09,-2.87E-05,1.28E-08,-29.93,3.4294,-1.89E+08,1.32E+08,0,1.27E-02,0,2.10E+09
11,1,1.28E-06,-3.19E-05,9.38E-09,-3.19E-05,-3.02E-05,-3.09E-05,9.38E-09,-29.272,3.7986,-24.794,-22.784,-29.272,3.7986,-1.20E+08,9.26E+07,-1.20E+08,9.26E+07,-7.66E+07,5.45E+07,0,1.27E-02,2.05E-06,6.50E-03,0,1.27E-02,0,2.19E+09,8.66E+05,2.19E+09,0,1.37E+09,-3.19E-05,9.38E-09,-29.272,3.7986,-1.20E+08,9.26E+07,0,1.27E-02,0,2.19E+09
12,1,1.41E-06,-3.50E-05,2.97E-08,-3.50E-05,-3.32E-05,-3.40E-05,2.97E-08,-26.096,4.7148,-26.096,-21.199,-25.67,4.7148,-7.48E+08,1.92E+08,-7.48E+08,1.92E+08,-4.82E+08,1.85E+08,0,1.27E-02,1.54E-06,6.55E-03,0,1.27E-02,0,2.27E+09,6.51E+05,2.27E+09,0,1.38E+09,-3.50E-05,2.97E-08,-26.096,4.7148,-7.48E+08,1.92E+08,0,1.27E-02,0,2.27E+09
13,1,1.54E-06,-3.82E-05,2.68E-08,-3.82E-05,-3.62E-05,-3.70E-05,2.68E-08,-24.696,1.7789,-24.696,-11.579,-24.006,1.7789,-1.62E+09,4.22E+08,-1.39E+09,4.22E+08,-1.62E+09,3.82E+08,0,1.28E-02,1.55E-06,6.47E-03,0,1.28E-02,0,2.31E+09,6.41E+05,2.31E+09,0,1.38E+09,-3.82E-05,2.68E-08,-24.696,1.7789,-1.62E+09,4.22E+08,0,1.28E-02,0,2.31E+09
14,1,1.67E-06,-4.13E-05,3.37E-08,-4.13E-05,-3.92E-05,-4.00E-05,3.37E-08,-25.436,0.48239,-25.436,-18.969,-25.312,0.48239,-4.75E+08,7.02E+08,-4.75E+08,2.32E+08,-3.60E+08,7.02E+08,0,1.28E-02,1.47E-06,6.49E-03,0,1.28E-02,0,2.40E+09,4.60E+05,2.40E+09,0,1.37E+09,-4.13E-05,3.37E-08,-25.436,0.48239,-4.75E+08,7.02E+08,0,1.28E-02,0,2.40E+09
15,1,1.80E-06,-4.44E-05,3.00E-08,-4.44E-05,-4.22E-05,-4.29E-05,3.00E-08,-26.23,0.57728,-25.055,-20.868,-26.23,0.57728,-4.62E+08,2.95E+08,-4.62E+08,1.67E+08,-3.91E+08,2.95E+08,0,1.28E-02,1.65E-06,6.07E-03,0,1.28E-02,0,2.62E+09,4.42E+05,2.62E+09,0,1.36E+09,-4.44E-05,3.00E-08,-26.23,0.57728,-4.62E+08,2.95E+08,0,1.28E-02,0,2.62E+09
16,1,1.92E-06,-4.75E-05,3.69E-08,-4.75E-05,-4.52E-05,-4.59E-05,3.69E-08,-26.316,0.51481,-26.316,-20.018,-24.576,0.51481,-3.32E+08,3.44E+08,-3.09E+08,3.44E+08,-3.32E+08,2.81E+08,0,1.28E-02,2.38E-06,6.32E-03,0,1.28E-02,0,2.74E+09,8.44E+05,2.74E+09,0,1.37E+09,-4.75E-05,3.69E-08,-26.316,0.51481,-3.32E+08,3.44E+08,0,1.28E-02,0,2.74E+09
17,1,2.05E-06,-5.06E-05,3.56E-08,-5.06E-05,-4.82E-05,-4.86E-05,3.56E-08,-25.079,1.4185,-24.219,-19.903,-25.079,1.4185,-6.65E+08,5.99E+08,-1.96E+08,5.99E+08,-6.65E+08,4.15E+08,0,1.28E-02,3.76E-06,7.08E-03,0,1.28E-02,0,2.83E+09,1.50E+06,2.83E+09,0,1.38E+09,-5.06E-05,3.56E-08,-25.079,1.4185,-6.65E+08,5.99E+08,0,1.28E-02,0,2.83E+09
18,1,2.18E-06,-5.36E-05,3.50E-08,-5.36E-05,-5.12E-05,-5.15E-05,3.50E-08,-24.854,1.9137,-24.455,-21.321,-24.854,1.9137,-2.37E+08,5.21E+08,-2.37E+08,3.14E+08,-2.17E+08,5.21E+08,0,1.28E-02,3.28E-06,7.50E-03,0,1.28E-02,0,2.78E+09,1.34E+06,2.78E+09,0,1.39E+09,-5.36E-05,3.50E-08,-24.854,1.9137,-2.37E+08,5.21E+08,0,1.28E-02,0,2.78E+09
19,1,2.31E-06,-5.67E-05,4.25E-08,-5.67E-05,-5.41E-05,-5.45E-05,4.25E-08,-23.97,1.8103,-23.97,-21.807,-23.8,1.8103,-2.28E+08,1.91E+08,-2.28E+08,1.91E+08,-2.10E+08,1.10E+08,0,1.28E-02,4.46E-06,7.79E-03,0,1.28E-02,0,2.73E+09,1.06E+06,2.73E+09,0,1.39E+09,-5.67E-05,4.25E-08,-23.97,1.8103,-2.28E+08,1.91E+08,0,1.28E-02,0,2.73E+09
20,1,2.44E-06,-5.97E-05,3.44E-08,-5.97E-05,-5.70E-05,-5.73E-05,3.44E-08,-27.887,2.0824,-23.708,-21.755,-27.887,2.0824,-1.15E+08,1.49E+08,-1.15E+08,1.49E+08,-1.11E+08,1.44E+08,0,1.29E-02,4.06E-06,8.03E-03,0,1.29E-02,0,2.74E+09,1.74E+06,2.74E+09,0,1.39E+09,-5.97E-05,3.44E-08,-27.887,2.0824,-1.15E+08,1.49E+08,0,1.29E-02,0,2.74E+09
21,1,2.57E-06,-6.26E-05,3.98E-08,-6.26E-05,-5.99E-05,-6.00E-05,3.98E-08,-27.806,4.4786,-23.749,-21.853,-27.806,4.4786,-9.88E+07,8.18E+07,-9.49E+07,8.18E+07,-9.88E+07,8.18E+07,0,1.29E-02,3.98E-06,8.28E-03,0,1.29E-02,0,2.80E+09,1.48E+06,2.80E+09,0,1.39E+09,-6.26E-05,3.98E-08,-27.806,4.4786,-9.88E+07,8.18E+07,0,1.29E-02,0,2.80E+09
22,1,2.69E-06,-6.56E-05,5.42E-08,-6.56E-05,-6.28E-05,-6.27E-05,5.42E-08,-27.092,5.1243,-23.255,-22.103,-27.092,5.1243,-1.05E+08,1.42E+08,-1.05E+08,1.42E+08,-3.28E+07,7.50E+07,0,1.29E-02,3.99E-06,8.52E-03,0,1.29E-02,0,2.85E+09,1.67E+06,2.85E+09,0,1.40E+09,-6.56E-05,5.42E-08,-27.092,5.1243,-1.05E+08,1.42E+08,0,1.29E-02,0,2.85E+09
23,1,2.82E-06,-6.85E-05,5.06E-08,-6.85E-05,-6.57E-05,-6.54E-05,5.06E-08,-25.339,4.015,-25.339,-17.385,-23.553,4.015,-3.90E+08,8.01E+08,-1.83E+08,5.24E+08,-3.90E+08,8.01E+08,0,1.29E-02,4.16E-06,8.72E-03,0,1.29E-02,0,2.90E+09,1.61E+06,2.90E+09,0,1.40E+09,-6.85E-05,5.06E-08,-25.339,4.015,-3.90E+08,8.01E+08,0,1.29E-02,0,2.90E+09
24,1,2.95E-06,-7.14E-05,1.85E-07,-7.14E-05,-6.85E-05,-6.82E-05,1.85E-07,-23.342,2.7307,-23.342,-20.024,-23.017,2.7307,-2.59E+08,1.58E+08,-2.59E+08,9.60E+07,-1.21E+08,1.58E+08,0,1.29E-02,2.87E-06,8.46E-03,0,1.29E-02,0,2.81E+09,9.09E+05,2.81E+09,0,1.41E+09,-7.14E-05,1.85E-07,-23.342,2.7307,-2.59E+08,1.58E+08,0,1.29E-02,0,2.81E+09
25,1,3.08E-06,-7.42E-05,3.42E-07,-7.42E-05,-7.13E-05,-7.10E-05,3.42E-07,-23.179,1.969,-22.811,-20.824,-23.179,1.969,-1.95E+08,1.06E+08,-1.95E+08,1.06E+08,-1.55E+08,1.00E+08,0,1.29E-02,3.10E-06,7.98E-03,0,1.29E-02,0,2.62E+09,1.01E+06,2.62E+09,0,1.40E+09,-7.42E-05,3.42E-07,-23.179,1.969,-1.95E+08,1.06E+08,0,1.29E-02,0,2.62E+09
26,1,3.21E-06,-7.70E-05,3.96E-07,-7.70E-05,-7.42E-05,-7.38E-05,3.96E-07,-22.741,1.739,-22.162,-20.53,-22.741,1.739,-9.98E+07,1.21E+08,-9.98E+07,1.21E+08,-5.36E+07,6.70E+07,0,1.29E-02,4.58E-06,7.78E-03,0,1.29E-02,0,2.49E+09,1.95E+06,2.49E+09,0,1.41E+09,-7.70E-05,3.96E-07,-22.741,1.739,-9.98E+07,1.21E+08,0,1.29E-02,0,2.49E+09
27,1,3.34E-06,-7.98E-05,6.37E-07,-7.98E-05,-7.69E-05,-7.65E-05,6.37E-07,-22.809,2.0933,-21.978,-20.598,-22.809,2.0933,-8.54E+07,8.98E+07,-8.54E+07,8.98E+07,-2.42E+07,8.35E+07,0,1.29E-02,4.61E-06,7.79E-03,0,1.29E-02,0,2.39E+09,1.68E+06,2.39E+09,0,1.41E+09,-7.98E-05,6.37E-07,-22.809,2.0933,-8.54E+07,8.98E+07,0,1.29E-02,0,2.39E+09
28,1,3.46E-06,-8.26E-05,8.36E-07,-8.26E-05,-7.97E-05,-7.92E-05,8.36E-07,-22.342,2.4446,-21.564,-20.465,-22.342,2.4446,-7.04E+07,6.68E+07,-7.04E+07,6.68E+07,-2.51E+07,3.03E+07,0,1.29E-02,5.43E-06,7.78E-03,0,1.29E-02,0,2.42E+09,2.06E+06,2.42E+09,0,1.41E+09,-8.26E-05,8.36E-07,-22.342,2.4446,-7.04E+07,6.68E+07,0,1.29E-02,0,2.42E+09
29,1,3.59E-06,-8.53E-05,1.18E-06,-8.53E-05,-8.24E-05,-8.19E-05,1.18E-06,-23.399,3.602,-21.328,-20.414,-23.399,3.602,-9.73E+07,7.95E+07,-9.73E+07,7.95E+07,-2.77E+07,3.40E+07,0,1.29E-02,5.41E-06,7.88E-03,0,1.29E-02,0,2.49E+09,2.03E+06,2.49E+09,0,1.41E+09,-8.53E-05,1.18E-06,-23.399,3.602,-9.73E+07,7.95E+07,0,1.29E-02,0,2.49E+09
30,1,3.72E-06,-8.80E-05,1.67E-06,-8.80E-05,-8.51E-05,-8.45E-05,1.67E-06,-23.938,3.8265,-21.396,-19.052,-23.938,3.8265,-4.27E+08,1.14E+08,-2.91E+08,1.11E+08,-4.27E+08,1.14E+08,0,1.29E-02,5.30E-06,8.31E-03,0,1.29E-02,0,2.54E+09,2.13E+06,2.54E+09,0,1.41E+09,-8.80E-05,1.67E-06,-23.938,3.8265,-4.27E+08,1.14E+08,0,1.29E-02,0,2.54E+09
31,1,3.85E-06,-9.07E-05,2.11E-06,-9.07E-05,-8.77E-05,-8.72E-05,2.11E-06,-24.301,3.8155,-21.392,-9.6039,-24.301,3.8155,-9.05E+08,6.28E+08,-9.05E+08,6.28E+08,-4.43E+08,1.89E+08,0,1.29E-02,4.18E-06,8.87E-03,0,1.29E-02,0,2.61E+09,1.71E+06,2.61E+09,0,1.41E+09,-9.07E-05,2.11E-06,-24.301,3.8155,-9.05E+08,6.28E+08,0,1.29E-02,0,2.61E+09
32,1,3.98E-06,-9.33E-05,1.16E-06,-9.33E-05,-9.02E-05,-8.98E-05,1.16E-06,-22.837,2.8746,-20.741,-16.579,-22.837,2.8746,-3.64E+08,2.65E+08,-3.64E+08,1.60E+08,-1.16E+08,2.65E+08,0,1.29E-02,3.98E-06,9.01E-03,0,1.29E-02,0,2.64E+09,1.73E+06,2.64E+09,0,1.41E+09,-9.33E-05,1.16E-06,-22.837,2.8746,-3.64E+08,2.65E+08,0,1.29E-02,0,2.64E+09
33,1,4.11E-06,-9.59E-05,6.45E-07,-9.59E-05,-9.28E-05,-9.24E-05,6.45E-07,-23.809,0.41032,-20.381,-17.629,-23.809,0.41032,-2.74E+08,4.06E+08,-2.74E+08,4.06E+08,-2.57E+08,2.02E+08,0,1.29E-02,3.62E-06,8.61E-03,0,1.29E-02,0,2.61E+09,1.15E+06,2.61E+09,0,1.41E+09,-9.59E-05,6.45E-07,-23.809,0.41032,-2.74E+08,4.06E+08,0,1.29E-02,0,2.61E+09
34,1,4.23E-06,-9.84E-05,1.62E-07,-9.84E-05,-9.52E-05,-9.49E-05,1.62E-07,-24.132,0.3176,-20.304,-17.886,-24.132,0.3176,-2.17E+08,2.29E+08,-2.17E+08,1.76E+08,-1.44E+08,2.29E+08,0,1.29E-02,4.45E-06,8.31E-03,0,1.29E-02,0,2.61E+09,1.52E+06,2.61E+09,0,1.41E+09,-9.84E-05,1.62E-07,-24.132,0.3176,-2.17E+08,2.29E+08,0,1.29E-02,0,2.61E+09
35,1,4.36E-06,-1.01E-04,5.55E-08,-1.01E-04,-9.76E-05,-9.74E-05,5.55E-08,-22.538,0.30954,-20,-16.211,-22.538,0.30954,-1.44E+08,1.84E+08,-1.28E+08,1.26E+08,-1.44E+08,1.84E+08,0,1.29E-02,5.34E-06,8.09E-03,0,1.29E-02,0,2.72E+09,1.99E+06,2.72E+09,0,1.41E+09,-1.01E-04,5.55E-08,-22.538,0.30954,-1.44E+08,1.84E+08,0,1.29E-02,0,2.72E+09
36,1,4.49E-06,-1.03E-04,5.93E-08,-1.03E-04,-1.00E-04,-9.99E-05,5.93E-08,-19.447,0.5069,-19.447,-14.739,-19.138,0.5069,-2.11E+08,1.62E+08,-2.11E+08,1.55E+08,-1.27E+08,1.62E+08,0,1.29E-02,6.25E-06,7.93E-03,0,1.29E-02,0,2.84E+09,2.52E+06,2.84E+09,0,1.41E+09,-1.03E-04,5.93E-08,-19.447,0.5069,-2.11E+08,1.62E+08,0,1.29E-02,0,2.84E+09
37,1,4.62E-06,-1.06E-04,5.75E-08,-1.06E-04,-1.02E-04,-1.02E-04,5.75E-08,-22.548,2.2406,-18.876,-16.549,-22.548,2.2406,-1.29E+08,1.60E+08,-1.03E+08,1.60E+08,-1.29E+08,8.77E+07,0,1.30E-02,6.97E-06,8.12E-03,0,1.30E-02,0,3.06E+09,2.51E+06,3.06E+09,0,1.41E+09,-1.06E-04,5.75E-08,-22.548,2.2406,-1.29E+08,1.60E+08,0,1.30E-02,0,3.06E+09
38,1,4.75E-06,-1.08E-04,4.31E-08,-1.08E-04,-1.05E-04,-1.05E-04,4.31E-08,-21.971,1.8567,-18.545,-16.249,-21.971,1.8567,-8.80E+08,9.13E+07,-8.80E+08,6.40E+07,-3.65E+08,9.13E+07,0,1.31E-02,7.64E-06,8.96E-03,0,1.31E-02,0,3.52E+09,3.05E+06,3.52E+09,0,1.41E+09,-1.08E-04,4.31E-08,-21.971,1.8567,-8.80E+08,9.13E+07,0,1.31E-02,0,3.52E+09
39,1,4.88E-06,-1.11E-04,5.23E-08,-1.11E-04,-1.07E-04,-1.07E-04,5.23E-08,-21.028,1.053,-18.504,-15.863,-21.028,1.053,-1.45E+08,2.99E+08,-1.45E+08,1.47E+08,-1.02E+08,2.99E+08,0,1.32E-02,7.29E-06,9.90E-03,0,1.32E-02,0,3.79E+09,3.05E+06,3.79E+09,0,1.41E+09,-1.11E-04,5.23E-08,-21.028,1.053,-1.45E+08,2.99E+08,0,1.32E-02,0,3.79E+09
40,1,5.00E-06,-1.13E-04,6.19E-08,-1.13E-04,-1.09E-04,-1.09E-04,6.19E-08,-18.255,0.42703,-18.248,-16.524,-18.255,0.42703,-1.59E+08,1.12E+08,-1.59E+08,1.00E+08,-1.02E+08,1.12E+08,0,1.32E-02,7.65E-06,1.05E-02,0,1.32E-02,0,3.94E+09,3.19E+06,3.94E+09,0,1.41E+09,-1.13E-04,6.19E-08,-18.255,0.42703,-1.59E+08,1.12E+08,0,1.32E-02,0,3.94E+09
41,1,5.13E-06,-1.15E-04,6.80E-08,-1.15E-04,-1.12E-04,-1.12E-04,6.80E-08,-19.083,0.37806,-17.734,-15.955,-19.083,0.37806,-1.37E+08,1.33E+08,-1.37E+08,1.33E+08,-8.02E+07,1.24E+08,0,1.32E-02,4.46E-06,1.02E-02,0,1.32E-02,0,3.81E+09,1.22E+06,3.81E+09,0,1.40E+09,-1.15E-04,6.80E-08,-19.083,0.37806,-1.37E+08,1.33E+08,0,1.32E-02,0,3.81E+09
42,1,5.26E-06,-1.17E-04,7.93E-08,-1.17E-04,-1.14E-04,-1.14E-04,7.93E-08,-17.708,0.48267,-17.072,-15.939,-17.708,0.48267,-1.24E+08,8.20E+07,-1.24E+08,8.20E+07,-8.42E+07,3.71E+07,0,1.33E-02,4.41E-06,9.87E-03,0,1.33E-02,0,3.71E+09,9.96E+05,3.71E+09,0,1.40E+09,-1.17E-04,7.93E-08,-17.708,0.48267,-1.24E+08,8.20E+07,0,1.33E-02,0,3.71E+09
43,1,5.39E-06,-1.19E-04,8.76E-08,-1.19E-04,-1.16E-04,-1.16E-04,8.76E-08,-17.173,0.5913,-16.747,-14.814,-17.173,0.5913,-5.34E+07,7.85E+07,-5.34E+07,7.85E+07,-4.91E+07,2.76E+07,0,1.33E-02,6.43E-06,9.57E-03,0,1.33E-02,0,3.59E+09,2.57E+06,3.59E+09,0,1.40E+09,-1.19E-04,8.76E-08,-17.173,0.5913,-5.34E+07,7.85E+07,0,1.33E-02,0,3.59E+09
44,1,5.52E-06,-1.21E-04,7.89E-08,-1.21E-04,-1.18E-04,-1.18E-04,7.89E-08,-17.675,1.4313,-16.2,-14.822,-17.675,1.4313,-5.88E+07,5.20E+07,-5.88E+07,5.20E+07,-4.25E+07,3.92E+07,0,1.33E-02,7.23E-06,9.31E-03,0,1.33E-02,0,3.47E+09,2.99E+06,3.47E+09,0,1.40E+09,-1.21E-04,7.89E-08,-17.675,1.4313,-5.88E+07,5.20E+07,0,1.33E-02,0,3.47E+09
45,1,5.65E-06,-1.23E-04,5.94E-08,-1.23E-04,-1.20E-04,-1.20E-04,5.94E-08,-17.424,2.2143,-15.84,-13.773,-17.424,2.2143,-4.83E+07,8.42E+07,-4.83E+07,4.08E+07,-4.14E+07,8.42E+07,0,1.33E-02,7.07E-06,8.91E-03,0,1.33E-02,0,3.32E+09,2.75E+06,3.32E+09,0,1.40E+09,-1.23E-04,5.94E-08,-17.424,2.2143,-4.83E+07,8.42E+07,0,1.33E-02,0,3.32E+09
46,1,5.78E-06,-1.25E-04,5.47E-08,-1.25E-04,-1.22E-04,-1.22E-04,5.47E-08,-17.081,0.89683,-15.341,-13.58,-17.081,0.89683,-8.43E+07,6.73E+07,-8.43E+07,6.73E+07,-4.67E+07,4.32E+07,0,1.33E-02,8.02E-06,8.67E-03,0,1.33E-02,0,3.16E+09,3.48E+06,3.16E+09,0,1.40E+09,-1.25E-04,5.47E-08,-17.081,0.89683,-8.43E+07,6.73E+07,0,1.33E-02,0,3.16E+09
47,1,5.90E-06,-1.27E-04,6.50E-08,-1.27E-04,-1.24E-04,-1.24E-04,6.50E-08,-16.19,0.42332,-14.886,-13.71,-16.19,0.42332,-9.11E+07,5.89E+07,-7.83E+07,5.89E+07,-9.11E+07,4.83E+07,0,1.33E-02,8.49E-06,8.30E-03,0,1.33E-02,0,3.00E+09,3.48E+06,3.00E+09,0,1.40E+09,-1.27E-04,6.50E-08,-16.19,0.42332,-9.11E+07,5.89E+07,0,1.33E-02,0,3.00E+09
48,1,6.03E-06,-1.29E-04,7.82E-08,-1.29E-04,-1.25E-04,-1.26E-04,7.82E-08,-15.155,0.52402,-14.826,-11.904,-15.155,0.52402,-1.51E+08,1.34E+08,-7.37E+07,1.34E+08,-1.51E+08,8.40E+07,0,1.34E-02,7.37E-06,8.04E-03,0,1.34E-02,0,2.85E+09,3.01E+06,2.85E+09,0,1.40E+09,-1.29E-04,7.82E-08,-15.155,0.52402,-1.51E+08,1.34E+08,0,1.34E-02,0,2.85E+09
49,1,6.16E-06,-1.31E-04,8.12E-08,-1.31E-04,-1.27E-04,-1.28E-04,8.12E-08,-14.367,0.50565,-14.091,-12.907,-14.367,0.50565,-1.25E+08,8.33E+07,-1.25E+08,8.33E+07,-1.16E+08,5.20E+07,0,1.34E-02,6.70E-06,7.88E-03,0,1.34E-02,0,2.85E+09,2.40E+06,2.85E+09,0,1.40E+09,-1.31E-04,8.12E-08,-14.367,0.50565,-1.25E+08,8.33E+07,0,1.34E-02,0,2.85E+09
50,1,6.29E-06,-1.33E-04,8.99E-08,-1.33E-04,-1.29E-04,-1.29E-04,8.99E-08,-14.087,0.37978,-13.609,-12.611,-14.087,0.37978,-8.37E+07,4.60E+07,-8.37E+07,4.60E+07,-2.65E+07,3.00E+07,0,1.34E-02,6.85E-06,7.73E-03,0,1.34E-02,0,2.96E+09,2.57E+06,2.96E+09,0,1.40E+09,-1.33E-04,8.99E-08,-14.087,0.37978,-8.37E+07,4.60E+07,0,1.34E-02,0,2.96E+09
51,1,6.42E-06,-1.35E-04,7.69E-08,-1.35E-04,-1.31E-04,-1.31E-04,7.69E-08,-13.436,0.51141,-13.25,-12.048,-13.436,0.51141,-3.16E+07,3.94E+07,-3.16E+07,3.90E+07,-1.89E+07,3.94E+07,0,1.34E-02,6.83E-06,7.60E-03,0,1.34E-02,0,2.94E+09,2.36E+06,2.94E+09,0,1.40E+09,-1.35E-04,7.69E-08,-13.436,0.51141,-3.16E+07,3.94E+07,0,1.34E-02,0,2.94E+09
52,1,6.55E-06,-1.36E-04,6.17E-08,-1.36E-04,-1.32E-04,-1.33E-04,6.17E-08,-12.877,1.0073,-12.819,-11.639,-12.877,1.0073,-2.12E+07,3.09E+07,-2.12E+07,3.09E+07,-1.59E+07,2.10E+07,0,1.34E-02,6.96E-06,8.00E-03,0,1.34E-02,0,2.92E+09,2.71E+06,2.92E+09,0,1.40E+09,-1.36E-04,6.17E-08,-12.877,1.0073,-2.12E+07,3.09E+07,0,1.34E-02,0,2.92E+09
53,1,6.67E-06,-1.38E-04,6.15E-08,-1.38E-04,-1.34E-04,-1.34E-04,6.15E-08,-12.417,1.0922,-12.417,-10.881,-12.219,1.0922,-4.98E+07,4.01E+07,-4.98E+07,4.01E+07,-2.54E+07,2.42E+07,0,1.33E-02,5.82E-06,8.54E-03,0,1.33E-02,0,2.90E+09,2.34E+06,2.90E+09,0,1.40E+09,-1.38E-04,6.15E-08,-12.417,1.0922,-4.98E+07,4.01E+07,0,1.33E-02,0,2.90E+09
54,1,6.80E-06,-1.39E-04,7.86E-08,-1.39E-04,-1.35E-04,-1.36E-04,7.86E-08,-12.063,0.45866,-12.063,-10.496,-11.58,0.45866,-6.35E+07,1.17E+08,-6.35E+07,8.10E+07,-5.61E+07,1.17E+08,0,1.33E-02,8.78E-06,8.70E-03,0,1.33E-02,0,2.86E+09,3.44E+06,2.86E+09,0,1.40E+09,-1.39E-04,7.86E-08,-12.063,0.45866,-6.35E+07,1.17E+08,0,1.33E-02,0,2.86E+09
55,1,6.93E-06,-1.41E-04,7.94E-08,-1.41E-04,-1.37E-04,-1.37E-04,7.94E-08,-12.211,0.39811,-11.509,-9.8116,-12.211,0.39811,-5.61E+07,4.53E+07,-3.21E+07,4.53E+07,-5.61E+07,3.69E+07,0,1.33E-02,1.17E-05,8.62E-03,0,1.33E-02,0,2.87E+09,4.92E+06,2.87E+09,0,1.40E+09,-1.41E-04,7.94E-08,-12.211,0.39811,-5.61E+07,4.53E+07,0,1.33E-02,0,2.87E+09
56,1,7.06E-06,-1.42E-04,7.25E-08,-1.42E-04,-1.38E-04,-1.39E-04,7.25E-08,-11.513,0.4083,-11.402,-9.9667,-11.513,0.4083,-8.65E+07,1.69E+08,-8.65E+07,1.69E+08,-4.15E+07,2.90E+07,0,1.33E-02,9.32E-06,8.58E-03,0,1.33E-02,0,2.93E+09,3.91E+06,2.93E+09,0,1.40E+09,-1.42E-04,7.25E-08,-11.513,0.4083,-8.65E+07,1.69E+08,0,1.33E-02,0,2.93E+09
57,1,7.19E-06,-1.44E-04,8.92E-08,-1.44E-04,-1.40E-04,-1.40E-04,8.92E-08,-10.961,0.34838,-10.649,-9.5025,-10.961,0.34838,-7.87E+07,5.57E+07,-7.87E+07,5.57E+07,-4.50E+07,4.73E+07,0,1.33E-02,5.43E-06,8.58E-03,0,1.33E-02,0,3.00E+09,2.25E+06,3.00E+09,0,1.40E+09,-1.44E-04,8.92E-08,-10.961,0.34838,-7.87E+07,5.57E+07,0,1.33E-02,0,3.00E+09
58,1,7.32E-06,-1.45E-04,9.93E-08,-1.45E-04,-1.41E-04,-1.41E-04,9.93E-08,-10.216,0.46918,-10.216,-9.1233,-10.122,0.46918,-5.47E+07,5.41E+07,-5.47E+07,5.41E+07,-2.07E+07,3.08E+07,0,1.33E-02,6.03E-06,8.58E-03,0,1.33E-02,0,3.09E+09,2.21E+06,3.09E+09,0,1.40E+09,-1.45E-04,9.93E-08,-10.216,0.46918,-5.47E+07,5.41E+07,0,1.33E-02,0,3.09E+09
59,1,7.44E-06,-1.46E-04,8.95E-08,-1.46E-04,-1.42E-04,-1.42E-04,8.95E-08,-9.7554,0.34258,-9.7554,-8.7358,-9.7068,0.34258,-3.13E+07,3.46E+07,-3.13E+07,3.46E+07,-1.76E+07,2.18E+07,0,1.33E-02,6.71E-06,8.57E-03,0,1.33E-02,0,3.17E+09,2.58E+06,3.17E+09,0,1.40E+09,-1.46E-04,8.95E-08,-9.7554,0.34258,-3.13E+07,3.46E+07,0,1.33E-02,0,3.17E+09
60,1,7.57E-06,-1.47E-04,6.62E-08,-1.47E-04,-1.43E-04,-1.44E-04,6.62E-08,-9.5481,0.56118,-9.2957,-8.2834,-9.5481,0.56118,-4.22E+07,2.66E+07,-4.22E+07,2.66E+07,-2.40E+07,2.19E+07,0,1.33E-02,9.44E-06,8.57E-03,0,1.33E-02,0,3.29E+09,3.93E+06,3.29E+09,0,1.40E+09,-1.47E-04,6.62E-08,-9.5481,0.56118,-4.22E+07,2.66E+07,0,1.33E-02,0,3.29E+09
61,1,7.70E-06,-1.49E-04,6.54E-08,-1.49E-04,-1.44E-04,-1.45E-04,6.54E-08,-9.6506,3.5896,-9.3541,-4.7108,-9.6506,3.5896,-4.52E+08,7.06E+08,-4.35E+08,7.06E+08,-4.52E+08,3.63E+08,0,1.33E-02,6.98E-06,8.54E-03,0,1.33E-02,0,3.37E+09,2.47E+06,3.37E+09,0,1.40E+09,-1.49E-04,6.54E-08,-9.6506,3.5896,-4.52E+08,7.06E+08,0,1.33E-02,0,3.37E+09
62,1,7.83E-06,-1.50E-04,7.09E-08,-1.50E-04,-1.45E-04,-1.46E-04,7.09E-08,-12.401,2.083,-12.401,-4.8448,-8.586,2.083,-5.95E+08,1.22E+09,-5.95E+08,1.22E+09,-3.86E+08,1.96E+08,0,1.33E-02,6.75E-06,8.57E-03,0,1.33E-02,0,3.35E+09,2.63E+06,3.35E+09,0,1.40E+09,-1.50E-04,7.09E-08,-12.401,2.083,-5.95E+08,1.22E+09,0,1.33E-02,0,3.35E+09
63,1,7.96E-06,-1.51E-04,6.72E-08,-1.51E-04,-1.46E-04,-1.47E-04,6.72E-08,-9.8361,3.4645,-9.8361,-3.2364,-9.2414,3.4645,-2.94E+08,5.81E+08,-2.94E+08,5.81E+08,-1.55E+08,2.76E+08,0,1.32E-02,9.43E-06,9.41E-03,0,1.32E-02,0,3.56E+09,3.51E+06,3.56E+09,0,1.40E+09,-1.51E-04,6.72E-08,-9.8361,3.4645,-2.94E+08,5.81E+08,0,1.32E-02,0,3.56E+09
64,1,8.09E-06,-1.52E-04,7.60E-08,-1.52E-04,-1.47E-04,-1.48E-04,7.60E-08,-9.9813,1.9141,-9.9813,-4.5299,-8.9905,1.9141,-6.41E+08,4.11E+08,-6.41E+08,4.11E+08,-1.75E+08,1.93E+08,0,1.32E-02,1.07E-05,9.51E-03,0,1.32E-02,0,3.57E+09,4.57E+06,3.57E+09,0,1.40E+09,-1.52E-04,7.60E-08,-9.9813,1.9141,-6.41E+08,4.11E+08,0,1.32E-02,0,3.57E+09
65,1,8.21E-06,-1.53E-04,8.38E-08,-1.53E-04,-1.48E-04,-1.48E-04,8.38E-08,-9.2022,1.3473,-9.2022,-3.9377,-7.3158,1.3473,-5.65E+08,8.19E+08,-5.65E+08,8.19E+08,-2.59E+08,1.92E+08,0,1.32E-02,6.81E-06,9.47E-03,0,1.32E-02,0,3.53E+09,2.76E+06,3.53E+09,0,1.40E+09,-1.53E-04,8.38E-08,-9.2022,1.3473,-5.65E+08,8.19E+08,0,1.32E-02,0,3.53E+09
66,1,8.34E-06,-1.53E-04,8.58E-08,-1.53E-04,-1.49E-04,-1.49E-04,8.58E-08,-8.9248,1.1791,-8.9248,-3.7386,-6.7527,1.1791,-4.26E+08,5.86E+08,-4.26E+08,5.86E+08,-1.41E+08,1.28E+08,0,1.33E-02,8.53E-06,9.47E-03,0,1.33E-02,0,3.56E+09,3.29E+06,3.56E+09,0,1.40E+09,-1.53E-04,8.58E-08,-8.9248,1.1791,-4.26E+08,5.86E+08,0,1.33E-02,0,3.56E+09
67,1,8.47E-06,-1.54E-04,8.72E-08,-1.54E-04,-1.50E-04,-1.50E-04,8.72E-08,-8.416,0.72559,-8.416,-3.5357,-6.4646,0.72559,-3.73E+08,6.14E+08,-3.73E+08,6.14E+08,-1.22E+08,1.02E+08,0,1.33E-02,7.05E-06,9.37E-03,0,1.33E-02,0,3.53E+09,2.36E+06,3.53E+09,0,1.40E+09,-1.54E-04,8.72E-08,-8.416,0.72559,-3.73E+08,6.14E+08,0,1.33E-02,0,3.53E+09
68,1,8.60E-06,-1.55E-04,8.27E-08,-1.55E-04,-1.50E-04,-1.51E-04,8.27E-08,-6.4759,1.8618,-6.4006,-3.3149,-6.4759,1.8618,-2.83E+08,2.43E+08,-2.83E+08,2.43E+08,-8.62E+07,6.62E+07,0,1.34E-02,8.07E-06,9.37E-03,0,1.34E-02,0,3.53E+09,2.42E+06,3.53E+09,0,1.40E+09,-1.55E-04,8.27E-08,-6.4759,1.8618,-2.83E+08,2.43E+08,0,1.34E-02,0,3.53E+09
69,1,8.73E-06,-1.56E-04,7.23E-08,-1.56E-04,-1.51E-04,-1.51E-04,7.23E-08,-6.1788,1.6241,-6.1788,-3.036,-5.3722,1.6241,-1.62E+08,2.23E+08,-1.62E+08,2.23E+08,-7.65E+07,9.33E+07,0,1.34E-02,7.29E-06,9.33E-03,0,1.34E-02,0,3.53E+09,2.84E+06,3.53E+09,0,1.40E+09,-1.56E-04,7.23E-08,-6.1788,1.6241,-1.62E+08,2.23E+08,0,1.34E-02,0,3.53E+09
70,1,8.86E-06,-1.56E-04,7.69E-08,-1.56E-04,-1.51E-04,-1.52E-04,7.69E-08,-5.1318,1.3103,-5.1318,-2.8391,-4.9676,1.3103,-2.73E+08,3.00E+08,-2.73E+08,3.00E+08,-6.71E+07,5.09E+07,0,1.34E-02,7.18E-06,9.38E-03,0,1.34E-02,0,3.54E+09,2.82E+06,3.54E+09,0,1.40E+09,-1.56E-04,7.69E-08,-5.1318,1.3103,-2.73E+08,3.00E+08,0,1.34E-02,0,3.54E+09
71,1,8.98E-06,-1.57E-04,6.50E-08,-1.57E-04,-1.52E-04,-1.52E-04,6.50E-08,-4.4024,1.315,-4.2595,-1.9583,-4.4024,1.315,-1.41E+08,3.52E+08,-1.41E+08,3.52E+08,-4.09E+07,8.68E+07,0,1.34E-02,9.79E-06,9.36E-03,0,1.34E-02,0,3.54E+09,3.75E+06,3.54E+09,0,1.40E+09,-1.57E-04,6.50E-08,-4.4024,1.315,-1.41E+08,3.52E+08,0,1.34E-02,0,3.54E+09
72,1,9.11E-06,-1.57E-04,8.01E-08,-1.57E-04,-1.52E-04,-1.53E-04,8.01E-08,-4.1527,0.72528,-4.1527,-1.6395,-3.2546,0.72528,-3.30E+08,1.59E+08,-3.30E+08,1.59E+08,-3.49E+07,5.47E+07,0,1.34E-02,1.10E-05,9.40E-03,0,1.34E-02,0,3.54E+09,3.61E+06,3.54E+09,0,1.40E+09,-1.57E-04,8.01E-08,-4.1527,0.72528,-3.30E+08,1.59E+08,0,1.34E-02,0,3.54E+09
73,1,9.24E-06,-1.58E-04,9.42E-08,-1.58E-04,-1.53E-04,-1.53E-04,9.42E-08,-3.2889,0.4614,-3.2889,-1.243,-3.2702,0.4614,-1.63E+08,2.47E+08,-1.63E+08,2.47E+08,-3.57E+07,6.05E+07,0,1.34E-02,1.15E-05,9.48E-03,0,1.34E-02,0,3.56E+09,4.87E+06,3.56E+09,0,1.40E+09,-1.58E-04,9.42E-08,-3.2889,0.4614,-1.63E+08,2.47E+08,0,1.34E-02,0,3.56E+09
74,1,9.37E-06,-1.58E-04,8.78E-08,-1.58E-04,-1.53E-04,-1.53E-04,8.78E-08,-2.5848,0.49732,-2.5848,-0.93324,-2.1765,0.49732,-1.82E+08,1.47E+08,-1.82E+08,1.47E+08,-2.69E+07,5.88E+07,0,1.34E-02,3.45E-06,9.51E-03,0,1.34E-02,0,3.56E+09,1.17E+06,3.56E+09,0,1.39E+09,-1.58E-04,8.78E-08,-2.5848,0.49732,-1.82E+08,1.47E+08,0,1.34E-02,0,3.56E+09
75,1,9.50E-06,-1.58E-04,8.88E-08,-1.58E-04,-1.53E-04,-1.53E-04,8.88E-08,-1.9854,0.5812,-1.9854,-0.24615,-1.7813,0.5812,-1.73E+08,1.26E+08,-1.73E+08,1.26E+08,-3.28E+07,4.35E+07,0,1.34E-02,7.46E-06,9.50E-03,0,1.34E-02,0,3.55E+09,2.69E+06,3.55E+09,0,1.40E+09,-1.58E-04,8.88E-08,-1.9854,0.5812,-1.73E+08,1.26E+08,0,1.34E-02,0,3.55E+09
76,1,9.63E-06,-1.58E-04,7.62E-08,-1.58E-04,-1.53E-04,-1.54E-04,7.62E-08,-1.7015,0.75333,-1.7015,-0.17279,-1.333,0.75333,-1.27E+08,1.12E+08,-1.27E+08,1.12E+08,-2.76E+07,3.02E+07,0,1.34E-02,7.29E-06,9.48E-03,0,1.34E-02,0,3.56E+09,2.99E+06,3.56E+09,0,1.39E+09,-1.58E-04,7.62E-08,-1.7015,0.75333,-1.27E+08,1.12E+08,0,1.34E-02,0,3.56E+09
77,1,9.76E-06,-1.59E-04,7.53E-08,-1.59E-04,-1.53E-04,-1.54E-04,7.53E-08,-1.3951,0.79541,-1.3951,0.11816,-0.81524,0.79541,-1.93E+08,1.51E+08,-1.93E+08,1.51E+08,-3.31E+07,3.60E+07,0,1.34E-02,1.03E-05,9.40E-03,0,1.34E-02,0,3.53E+09,3.89E+06,3.53E+09,0,1.40E+09,-1.59E-04,7.53E-08,-1.3951,0.79541,-1.93E+08,1.51E+08,0,1.34E-02,0,3.53E+09
78,1,9.88E-06,-1.59E-04,6.65E-08,-1.59E-04,-1.53E-04,-1.54E-04,6.65E-08,-0.963,0.7623,-0.66034,0.60115,-0.963,0.7623,-1.41E+08,2.28E+08,-1.41E+08,2.28E+08,-3.67E+07,2.62E+07,0,1.34E-02,7.57E-06,9.28E-03,0,1.34E-02,0,3.50E+09,3.01E+06,3.50E+09,0,1.40E+09,-1.59E-04,6.65E-08,-0.963,0.7623,-1.41E+08,2.28E+08,0,1.34E-02,0,3.50E+09
79,1,1.00E-05,-1.59E-04,7.43E-08,-1.59E-04,-1.53E-04,-1.54E-04,7.43E-08,-0.49911,1.1428,-8.12E-02,1.1428,-0.49911,0.76428,-1.13E+08,8.57E+07,-1.13E+08,8.57E+07,-1.82E+07,2.33E+07,0,1.34E-02,6.69E-06,9.15E-03,0,1.34E-02,0,3.47E+09,2.40E+06,3.47E+09,0,1.39E+09,-1.59E-04,7.43E-08,-0.49911,1.1428,-1.13E+08,8.57E+07,0,1.34E-02,0,3.47E+09
80,1,1.01E-05,-1.59E-04,7.45E-08,-1.59E-04,-1.53E-04,-1.54E-04,7.45E-08,-0.38442,1.5224,0.53842,1.5224,-0.38442,1.134,-7.00E+07,8.48E+07,-7.00E+07,8.48E+07,-2.02E+07,2.93E+07,0,1.34E-02,8.22E-06,8.92E-03,0,1.34E-02,0,3.41E+09,3.32E+06,3.41E+09,0,1.38E+09,-1.59E-04,7.45E-08,-0.38442,1.5224,-7.00E+07,8.48E+07,0,1.34E-02,0,3.41E+09
81,1,1.03E-05,-1.58E-04,7.92E-08,-1.58E-04,-1.53E-04,-1.53E-04,7.92E-08,-0.36591,2.0259,1.0337,2.0259,-0.36591,1.5875,-8.07E+07,7.57E+07,-8.07E+07,7.57E+07,-1.81E+07,2.41E+07,0,1.33E-02,1.00E-05,8.64E-03,0,1.33E-02,0,3.32E+09,4.24E+06,3.32E+09,0,1.36E+09,-1.58E-04,7.92E-08,-0.36591,2.0259,-8.07E+07,7.57E+07,0,1.33E-02,0,3.32E+09
82,1,1.04E-05,-1.58E-04,8.22E-08,-1.58E-04,-1.53E-04,-1.53E-04,8.22E-08,-0.36719,2.4204,1.4447,2.4204,-0.36719,1.9591,-9.62E+07,8.66E+07,-9.62E+07,8.66E+07,-3.36E+07,2.26E+07,0,1.33E-02,1.07E-05,8.44E-03,0,1.33E-02,0,3.26E+09,3.56E+06,3.26E+09,0,1.35E+09,-1.58E-04,8.22E-08,-0.36719,2.4204,-9.62E+07,8.66E+07,0,1.33E-02,0,3.26E+09
83,1,1.05E-05,-1.58E-04,8.00E-08,-1.58E-04,-1.53E-04,-1.53E-04,8.00E-08,-0.40432,2.8957,1.8408,2.8957,-0.40432,2.0753,-1.20E+08,5.85E+07,-1.20E+08,5.85E+07,-1.84E+07,2.96E+07,0,1.31E-02,8.45E-06,8.29E-03,0,1.31E-02,0,3.19E+09,3.20E+06,3.19E+09,0,1.33E+09,-1.58E-04,8.00E-08,-0.40432,2.8957,-1.20E+08,5.85E+07,0,1.31E-02,0,3.19E+09
84,1,1.07E-05,-1.58E-04,6.47E-08,-1.58E-04,-1.53E-04,-1.53E-04,6.47E-08,-0.49056,3.2787,2.1811,3.2787,-0.49056,2.5832,-7.22E+07,6.51E+07,-7.22E+07,6.51E+07,-2.14E+07,2.51E+07,0,1.27E-02,4.42E-06,8.25E-03,0,1.27E-02,0,3.11E+09,1.74E+06,3.11E+09,0,1.30E+09,-1.58E-04,6.47E-08,-0.49056,3.2787,-7.22E+07,6.51E+07,0,1.27E-02,0,3.11E+09
85,1,1.08E-05,-1.57E-04,7.08E-08,-1.57E-04,-1.52E-04,-1.52E-04,7.08E-08,-0.4236,3.7683,2.5849,3.7683,-0.4236,3.0055,-4.04E+07,8.83E+07,-4.04E+07,8.83E+07,-1.96E+07,2.22E+07,0,1.23E-02,6.25E-06,8.20E-03,0,1.23E-02,0,3.00E+09,2.32E+06,3.00E+09,0,1.29E+09,-1.57E-04,7.08E-08,-0.4236,3.7683,-4.04E+07,8.83E+07,0,1.23E-02,0,3.00E+09
86,1,1.09E-05,-1.57E-04,6.57E-08,-1.57E-04,-1.52E-04,-1.52E-04,6.57E-08,-0.35582,4.1862,3.0487,4.1862,-0.35582,3.284,-7.33E+07,5.92E+07,-7.33E+07,5.92E+07,-1.59E+07,2.70E+07,0,1.18E-02,8.05E-06,8.14E-03,0,1.18E-02,0,2.88E+09,3.31E+06,2.88E+09,0,1.27E+09,-1.57E-04,6.57E-08,-0.35582,4.1862,-7.33E+07,5.92E+07,0,1.18E-02,0,2.88E+09
87,1,1.10E-05,-1.56E-04,6.62E-08,-1.56E-04,-1.51E-04,-1.52E-04,6.62E-08,-0.30106,4.6469,3.4192,4.6469,-0.30106,3.7644,-4.35E+07,5.71E+07,-4.35E+07,5.71E+07,-1.75E+07,2.78E+07,0,1.14E-02,7.45E-06,8.05E-03,0,1.14E-02,0,2.76E+09,2.74E+06,2.76E+09,0,1.25E+09,-1.56E-04,6.62E-08,-0.30106,4.6469,-4.35E+07,5.71E+07,0,1.14E-02,0,2.76E+09
88,1,1.12E-05,-1.56E-04,6.71E-08,-1.56E-04,-1.51E-04,-1.51E-04,6.71E-08,-0.33641,5.0247,3.7962,5.0247,-0.33641,4.2074,-3.97E+07,4.98E+07,-3.97E+07,4.98E+07,-2.16E+07,2.06E+07,0,1.13E-02,5.54E-06,7.97E-03,0,1.13E-02,0,2.63E+09,1.81E+06,2.63E+09,0,1.23E+09,-1.56E-04,6.71E-08,-0.33641,5.0247,-3.97E+07,4.98E+07,0,1.13E-02,0,2.63E+09
89,1,1.13E-05,-1.55E-04,7.13E-08,-1.55E-04,-1.50E-04,-1.51E-04,7.13E-08,-4.4739,8.0188,-2.0477,7.8391,-4.4739,8.0188,-1.05E+09,1.25E+09,-1.05E+09,1.25E+09,-4.45E+08,5.08E+08,0,1.21E-02,5.68E-06,7.84E-03,0,1.21E-02,0,2.47E+09,1.96E+06,2.47E+09,0,1.33E+09,-1.55E-04,7.13E-08,-4.4739,8.0188,-1.05E+09,1.25E+09,0,1.21E-02,0,2.47E+09
90,1,1.14E-05,-1.55E-04,6.46E-08,-1.55E-04,-1.50E-04,-1.50E-04,6.46E-08,-2.4836,8.3468,1.2793,8.3468,-2.4836,6.0753,-6.77E+08,8.48E+08,-6.77E+08,8.48E+08,-3.18E+08,3.98E+08,0,1.11E-02,7.01E-06,7.53E-03,0,1.11E-02,0,2.33E+09,2.90E+06,2.33E+09,0,1.23E+09,-1.55E-04,6.46E-08,-2.4836,8.3468,-6.77E+08,8.48E+08,0,1.11E-02,0,2.33E+09
91,1,1.16E-05,-1.54E-04,6.44E-08,-1.54E-04,-1.49E-04,-1.49E-04,6.44E-08,-2.4747,8.1748,-1.343,8.1748,-2.4747,7.6473,-1.02E+09,1.27E+09,-1.02E+09,1.27E+09,-3.13E+08,2.30E+08,0,1.07E-02,6.72E-06,7.28E-03,0,1.07E-02,0,2.20E+09,2.54E+06,2.20E+09,0,1.16E+09,-1.54E-04,6.44E-08,-2.4747,8.1748,-1.02E+09,1.27E+09,0,1.07E-02,0,2.20E+09
92,1,1.17E-05,-1.53E-04,7.17E-08,-1.53E-04,-1.49E-04,-1.49E-04,7.17E-08,-3.4401,8.1699,-5.05E-03,8.1699,-3.4401,6.8578,-7.87E+08,1.09E+09,-7.87E+08,1.09E+09,-2.54E+08,2.50E+08,0,1.05E-02,4.15E-06,6.96E-03,0,1.05E-02,0,2.08E+09,1.64E+06,2.08E+09,0,1.11E+09,-1.53E-04,7.17E-08,-3.4401,8.1699,-7.87E+08,1.09E+09,0,1.05E-02,0,2.08E+09
93,1,1.18E-05,-1.52E-04,7.15E-08,-1.52E-04,-1.48E-04,-1.48E-04,7.15E-08,-1.9982,9.0336,1.7389,9.0336,-1.9982,7.8752,-5.73E+08,7.08E+08,-5.73E+08,7.08E+08,-2.33E+08,1.86E+08,0,1.03E-02,3.32E-06,6.35E-03,0,1.03E-02,0,1.92E+09,8.65E+05,1.92E+09,0,1.10E+09,-1.52E-04,7.15E-08,-1.9982,9.0336,-5.73E+08,7.08E+08,0,1.03E-02,0,1.92E+09
94,1,1.19E-05,-1.52E-04,6.09E-08,-1.52E-04,-1.47E-04,-1.48E-04,6.09E-08,-1.4628,9.007,2.7225,9.007,-1.4628,7.7115,-5.79E+08,8.61E+08,-5.79E+08,8.61E+08,-1.98E+08,1.76E+08,0,1.00E-02,3.73E-06,6.15E-03,0,1.00E-02,0,1.79E+09,1.61E+06,1.79E+09,0,1.08E+09,-1.52E-04,6.09E-08,-1.4628,9.007,-5.79E+08,8.61E+08,0,1.00E-02,0,1.79E+09
95,1,1.21E-05,-1.51E-04,4.68E-08,-1.51E-04,-1.46E-04,-1.47E-04,4.68E-08,-1.4313,9.9602,3.496,9.9602,-1.4313,7.7787,-9.04E+08,6.11E+08,-9.04E+08,6.11E+08,-1.13E+08,1.63E+08,0,9.72E-03,3.41E-06,5.94E-03,0,9.72E-03,0,1.65E+09,1.47E+06,1.65E+09,0,1.03E+09,-1.51E-04,4.68E-08,-1.4313,9.9602,-9.04E+08,6.11E+08,0,9.72E-03,0,1.65E+09
96,1,1.22E-05,-1.50E-04,4.89E-08,-1.50E-04,-1.45E-04,-1.46E-04,4.89E-08,-0.92378,10.454,4.584,10.454,-0.92378,7.5218,-3.82E+08,4.32E+08,-3.82E+08,4.32E+08,-1.46E+08,1.38E+08,0,9.72E-03,1.97E-06,5.76E-03,0,9.72E-03,0,1.47E+09,8.13E+05,1.47E+09,0,1.02E+09,-1.50E-04,4.89E-08,-0.92378,10.454,-3.82E+08,4.32E+08,0,9.72E-03,0,1.47E+09
97,1,1.23E-05,-1.49E-04,5.54E-08,-1.49E-04,-1.44E-04,-1.45E-04,5.54E-08,-1.1382,8.9775,4.9432,8.9775,-1.1382,6.7749,-6.40E+08,5.72E+08,-6.40E+08,5.72E+08,-1.66E+08,1.43E+08,0,9.42E-03,1.60E-06,5.28E-03,0,9.42E-03,0,1.36E+09,6.72E+05,1.36E+09,0,9.80E+08,-1.49E-04,5.54E-08,-1.1382,8.9775,-6.40E+08,5.72E+08,0,9.42E-03,0,1.36E+09
98,1,1.25E-05,-1.48E-04,1.93E-07,-1.48E-04,-1.43E-04,-1.44E-04,1.93E-07,-1.1141,8.4691,5.0477,8.4691,-1.1141,7.2291,-5.07E+08,3.49E+08,-5.07E+08,3.49E+08,-1.82E+08,1.75E+08,0,9.03E-03,1.60E-06,4.78E-03,0,9.03E-03,0,1.21E+09,5.87E+05,1.21E+09,0,9.37E+08,-1.48E-04,1.93E-07,-1.1141,8.4691,-5.07E+08,3.49E+08,0,9.03E-03,0,1.21E+09
99,1,1.26E-05,-1.47E-04,4.17E-07,-1.47E-04,-1.42E-04,-1.44E-04,4.17E-07,-1.2378,9.3497,5.2536,9.3497,-1.2378,7.247,-2.69E+08,3.50E+08,-2.69E+08,3.50E+08,-1.54E+08,1.56E+08,0,9.02E-03,2.06E-06,4.21E-03,0,9.02E-03,0,1.05E+09,8.73E+05,1.05E+09,0,9.27E+08,-1.47E-04,4.17E-07,-1.2378,9.3497,-2.69E+08,3.50E+08,0,9.02E-03,0,1.05E+09
100,1,1.27E-05,-1.46E-04,6.29E-07,-1.46E-04,-1.41E-04,-1.43E-04,6.29E-07,-1.0859,8.6375,5.838,8.6375,-1.0859,8.1797,-2.75E+08,2.42E+08,-2.75E+08,2.42E+08,-1.19E+08,1.37E+08,0,8.70E-03,1.21E-06,3.65E-03,0,8.70E-03,0,9.16E+08,3.50E+05,9.16E+08,0,8.98E+08,-1.46E-04,6.29E-07,-1.0859,8.6375,-2.75E+08,2.42E+08,0,8.70E-03,0,9.16E+08
101,1,1.28E-05,-1.45E-04,8.89E-07,-1.45E-04,-1.40E-04,-1.42E-04,8.89E-07,-1.2736,9.7726,5.6178,9.7726,-1.2736,7.9229,-3.27E+08,3.94E+08,-3.27E+08,3.94E+08,-1.10E+08,1.40E+08,0,8.72E-03,1.04E-06,2.88E-03,0,8.72E-03,0,8.68E+08,2.61E+05,8.46E+08,0,8.68E+08,-1.45E-04,8.89E-07,-1.2736,9.7726,-3.27E+08,3.94E+08,0,8.72E-03,0,8.68E+08
102,1,1.30E-05,-1.44E-04,1.19E-06,-1.44E-04,-1.39E-04,-1.41E-04,1.19E-06,-0.9045,9.9871,5.8684,9.9871,-0.9045,7.8545,-2.24E+08,3.18E+08,-2.24E+08,3.18E+08,-1.08E+08,1.35E+08,0,8.83E-03,7.79E-07,2.00E-03,0,8.83E-03,0,8.30E+08,1.83E+05,7.79E+08,0,8.30E+08,-1.44E-04,1.19E-06,-0.9045,9.9871,-2.24E+08,3.18E+08,0,8.83E-03,0,8.30E+08
103,1,1.31E-05,-1.43E-04,1.50E-06,-1.43E-04,-1.38E-04,-1.40E-04,1.50E-06,-1.0949,8.8654,6.0352,8.8654,-1.0949,8.0836,-2.57E+08,1.43E+08,-2.57E+08,1.43E+08,-1.45E+08,1.11E+08,0,8.69E-03,7.94E-07,1.85E-03,0,8.69E-03,0,8.22E+08,2.09E+05,7.21E+08,0,8.22E+08,-1.43E-04,1.50E-06,-1.0949,8.8654,-2.57E+08,1.43E+08,0,8.69E-03,0,8.22E+08
104,1,1.32E-05,-1.42E-04,1.72E-06,-1.42E-04,-1.37E-04,-1.39E-04,1.72E-06,-1.2352,8.8093,6.1683,8.8093,-1.2352,7.704,-1.86E+08,2.18E+08,-1.86E+08,2.18E+08,-1.31E+08,1.11E+08,0,8.73E-03,8.85E-07,1.85E-03,0,8.73E-03,0,7.86E+08,2.03E+05,6.29E+08,0,7.86E+08,-1.42E-04,1.72E-06,-1.2352,8.8093,-1.86E+08,2.18E+08,0,8.73E-03,0,7.86E+08
105,1,1.34E-05,-1.41E-04,1.94E-06,-1.41E-04,-1.36E-04,-1.38E-04,1.94E-06,-1.9427,9.0263,6.5792,9.0263,-1.9427,7.1369,-2.12E+08,1.51E+08,-2.12E+08,1.51E+08,-1.19E+08,1.28E+08,0,8.78E-03,7.89E-07,1.85E-03,0,8.78E-03,0,7.70E+08,2.72E+05,4.76E+08,0,7.70E+08,-1.41E-04,1.94E-06,-1.9427,9.0263,-2.12E+08,1.51E+08,0,8.78E-03,0,7.70E+08
106,1,1.35E-05,-1.40E-04,2.09E-06,-1.40E-04,-1.35E-04,-1.38E-04,2.09E-06,-2.6837,9.1028,6.5793,9.1028,-2.6837,7.5847,-1.37E+08,1.51E+08,-1.37E+08,1.51E+08,-1.31E+08,1.38E+08,0,8.74E-03,9.91E-07,1.87E-03,0,8.74E-03,0,7.62E+08,2.56E+05,3.06E+08,0,7.62E+08,-1.40E-04,2.09E-06,-2.6837,9.1028,-1.37E+08,1.51E+08,0,8.74E-03,0,7.62E+08
107,1,1.36E-05,-1.39E-04,2.15E-06,-1.39E-04,-1.34E-04,-1.37E-04,2.15E-06,-2.3871,9.0805,7.3903,9.0805,-2.3871,4.1846,-2.09E+08,2.48E+08,-1.52E+08,2.48E+08,-2.09E+08,1.25E+08,0,8.91E-03,5.55E-07,1.87E-03,0,8.91E-03,0,7.58E+08,1.95E+05,3.17E+08,0,7.58E+08,-1.39E-04,2.15E-06,-2.3871,9.0805,-2.09E+08,2.48E+08,0,8.91E-03,0,7.58E+08
108,1,1.37E-05,-1.38E-04,2.17E-06,-1.38E-04,-1.33E-04,-1.37E-04,2.17E-06,-2.9788,9.1769,7.2151,9.1769,-2.9788,3.9452,-1.50E+08,1.08E+08,-1.50E+08,1.08E+08,-1.28E+08,1.04E+08,0,8.86E-03,7.27E-07,1.86E-03,0,8.86E-03,0,7.48E+08,1.04E+05,3.18E+08,0,7.48E+08,-1.38E-04,2.17E-06,-2.9788,9.1769,-1.50E+08,1.08E+08,0,8.86E-03,0,7.48E+08
109,1,1.39E-05,-1.37E-04,2.13E-06,-1.37E-04,-1.32E-04,-1.37E-04,2.13E-06,-3.8696,8.9529,7.3494,8.9529,-3.8696,1.4708,-1.35E+08,1.46E+08,-1.23E+08,1.46E+08,-1.35E+08,7.93E+07,0,9.01E-03,8.14E-07,1.85E-03,0,9.01E-03,0,7.66E+08,95978,3.22E+08,0,7.66E+08,-1.37E-04,2.13E-06,-3.8696,8.9529,-1.35E+08,1.46E+08,0,9.01E-03,0,7.66E+08
110,1,1.40E-05,-1.37E-04,2.01E-06,-1.36E-04,-1.30E-04,-1.37E-04,2.01E-06,-2.5702,8.8871,7.3148,8.8871,-2.5702,1.5827,-1.42E+08,1.15E+08,-1.42E+08,1.15E+08,-1.01E+08,8.41E+07,0,8.92E-03,7.05E-07,1.86E-03,0,8.92E-03,0,7.68E+08,2.00E+05,3.20E+08,0,7.68E+08,-1.37E-04,2.01E-06,-2.5702,8.8871,-1.42E+08,1.15E+08,0,8.92E-03,0,7.68E+08
111,1,1.41E-05,-1.37E-04,2.00E-06,-1.35E-04,-1.29E-04,-1.37E-04,2.00E-06,-2.2975,8.9483,7.5358,8.9483,-2.2975,3.1705,-8.88E+07,1.26E+08,-8.13E+07,1.26E+08,-8.88E+07,1.07E+08,0,8.88E-03,7.72E-07,1.86E-03,0,8.88E-03,0,7.87E+08,2.55E+05,3.20E+08,0,7.87E+08,-1.37E-04,2.00E-06,-2.2975,8.9483,-8.88E+07,1.26E+08,0,8.88E-03,0,7.87E+08
112,1,1.42E-05,-1.37E-04,1.96E-06,-1.34E-04,-1.28E-04,-1.37E-04,1.96E-06,-1.9314,8.7195,7.5906,8.7195,-1.9314,2.3107,-9.45E+07,9.15E+07,-9.45E+07,8.60E+07,-9.09E+07,9.15E+07,0,8.84E-03,9.45E-07,1.86E-03,0,8.84E-03,0,7.73E+08,3.14E+05,3.16E+08,0,7.73E+08,-1.37E-04,1.96E-06,-1.9314,8.7195,-9.45E+07,9.15E+07,0,8.84E-03,0,7.73E+08
113,1,1.44E-05,-1.37E-04,2.00E-06,-1.33E-04,-1.27E-04,-1.37E-04,2.00E-06,-2.5202,8.7546,7.7639,8.7546,-2.5202,2.0504,-1.12E+08,1.23E+08,-1.12E+08,1.23E+08,-1.05E+08,8.43E+07,0,8.76E-03,8.43E-07,1.86E-03,0,8.76E-03,0,7.97E+08,2.02E+05,3.21E+08,0,7.97E+08,-1.37E-04,2.00E-06,-2.5202,8.7546,-1.12E+08,1.23E+08,0,8.76E-03,0,7.97E+08
114,1,1.45E-05,-1.37E-04,2.04E-06,-1.32E-04,-1.26E-04,-1.37E-04,2.04E-06,-1.8057,8.8123,7.6198,8.8123,-1.8057,3.47,-1.22E+08,1.01E+08,-7.41E+07,9.75E+07,-1.22E+08,1.01E+08,0,8.75E-03,6.18E-07,1.86E-03,0,8.75E-03,0,7.63E+08,2.26E+05,3.24E+08,0,7.63E+08,-1.37E-04,2.04E-06,-1.8057,8.8123,-1.22E+08,1.01E+08,0,8.75E-03,0,7.63E+08
115,1,1.46E-05,-1.37E-04,2.11E-06,-1.31E-04,-1.25E-04,-1.37E-04,2.11E-06,-1.6532,8.7449,7.794,8.7449,-1.6532,2.755,-1.19E+08,1.15E+08,-8.31E+07,5.28E+07,-1.19E+08,1.15E+08,0,8.66E-03,9.81E-07,1.85E-03,0,8.66E-03,0,7.53E+08,2.68E+05,3.22E+08,0,7.53E+08,-1.37E-04,2.11E-06,-1.6532,8.7449,-1.19E+08,1.15E+08,0,8.66E-03,0,7.53E+08
116,1,1.48E-05,-1.37E-04,2.17E-06,-1.30E-04,-1.24E-04,-1.37E-04,2.17E-06,-2.4816,8.6939,7.7449,8.6939,-2.4816,2.8607,-1.48E+08,9.15E+07,-4.44E+07,6.49E+07,-1.48E+08,9.15E+07,0,8.74E-03,6.43E-07,1.85E-03,0,8.74E-03,0,7.40E+08,1.90E+05,3.19E+08,0,7.40E+08,-1.37E-04,2.17E-06,-2.4816,8.6939,-1.48E+08,9.15E+07,0,8.74E-03,0,7.40E+08
117,1,1.49E-05,-1.37E-04,2.17E-06,-1.29E-04,-1.23E-04,-1.37E-04,2.17E-06,-2.5732,8.6785,7.756,8.6785,-2.5732,1.5267,-7.43E+07,9.20E+07,-5.46E+07,5.36E+07,-7.43E+07,9.20E+07,0,8.83E-03,5.93E-07,1.85E-03,0,8.83E-03,0,7.54E+08,72232,3.18E+08,0,7.54E+08,-1.37E-04,2.17E-06,-2.5732,8.6785,-7.43E+07,9.20E+07,0,8.83E-03,0,7.54E+08
118,1,1.50E-05,-1.37E-04,2.09E-06,-1.28E-04,-1.22E-04,-1.37E-04,2.09E-06,-1.9329,8.667,7.7868,8.667,-1.9329,1.9167,-7.79E+07,8.21E+07,-4.67E+07,8.10E+07,-7.79E+07,8.21E+07,0,8.76E-03,7.42E-07,1.86E-03,0,8.76E-03,0,7.49E+08,1.79E+05,3.20E+08,0,7.49E+08,-1.37E-04,2.09E-06,-1.9329,8.667,-7.79E+07,8.21E+07,0,8.76E-03,0,7.49E+08
119,1,1.51E-05,-1.37E-04,1.98E-06,-1.27E-04,-1.21E-04,-1.37E-04,1.98E-06,-3.4771,8.7166,7.8195,8.7166,-3.4771,1.3767,-1.07E+08,8.15E+07,-5.06E+07,5.57E+07,-1.07E+08,8.15E+07,0,8.80E-03,8.42E-07,1.86E-03,0,8.80E-03,0,7.51E+08,2.57E+05,3.21E+08,0,7.51E+08,-1.37E-04,1.98E-06,-3.4771,8.7166,-1.07E+08,8.15E+07,0,8.80E-03,0,7.51E+08
120,1,1.53E-05,-1.37E-04,1.91E-06,-1.26E-04,-1.19E-04,-1.37E-04,1.91E-06,-2.6942,8.7241,7.8354,8.7241,-2.6942,2.1028,-6.34E+07,7.91E+07,-3.41E+07,4.15E+07,-6.34E+07,7.91E+07,0,8.78E-03,8.17E-07,1.85E-03,0,8.78E-03,0,7.65E+08,1.60E+05,3.21E+08,0,7.65E+08,-1.37E-04,1.91E-06,-2.6942,8.7241,-6.34E+07,7.91E+07,0,8.78E-03,0,7.65E+08
121,1,1.54E-05,-1.37E-04,1.98E-06,-1.25E-04,-1.18E-04,-1.37E-04,1.98E-06,-1.8276,8.6708,7.8469,8.6708,-1.8276,2.4871,-6.02E+07,6.71E+07,-4.52E+07,4.68E+07,-6.02E+07,6.71E+07,0,8.80E-03,9.14E-07,1.85E-03,0,8.80E-03,0,7.89E+08,1.50E+05,3.21E+08,0,7.89E+08,-1.37E-04,1.98E-06,-1.8276,8.6708,-6.02E+07,6.71E+07,0,8.80E-03,0,7.89E+08
122,1,1.55E-05,-1.37E-04,2.03E-06,-1.23E-04,-1.17E-04,-1.37E-04,2.03E-06,-0.99405,8.6696,7.819,8.6696,-0.99405,2.5298,-7.41E+07,6.73E+07,-3.38E+07,3.12E+07,-7.41E+07,6.73E+07,0,8.74E-03,6.83E-07,1.86E-03,0,8.74E-03,0,7.86E+08,1.86E+05,3.23E+08,0,7.86E+08,-1.37E-04,2.03E-06,-0.99405,8.6696,-7.41E+07,6.73E+07,0,8.74E-03,0,7.86E+08
123,1,1.57E-05,-1.37E-04,2.16E-06,-1.22E-04,-1.16E-04,-1.37E-04,2.16E-06,-1.2774,8.6976,7.8019,8.6976,-1.2774,2.5842,-7.77E+07,6.90E+07,-3.73E+07,3.01E+07,-7.77E+07,6.90E+07,0,8.76E-03,6.85E-07,1.86E-03,0,8.76E-03,0,7.85E+08,1.51E+05,3.23E+08,0,7.85E+08,-1.37E-04,2.16E-06,-1.2774,8.6976,-7.77E+07,6.90E+07,0,8.76E-03,0,7.85E+08
124,1,1.58E-05,-1.37E-04,2.15E-06,-1.21E-04,-1.15E-04,-1.37E-04,2.15E-06,-1.9704,8.7304,7.8473,8.7304,-1.9704,2.109,-9.96E+07,5.04E+07,-2.87E+07,3.18E+07,-9.96E+07,5.04E+07,0,8.80E-03,7.49E-07,1.86E-03,0,8.80E-03,0,7.75E+08,87223,3.19E+08,0,7.75E+08,-1.37E-04,2.15E-06,-1.9704,8.7304,-9.96E+07,5.04E+07,0,8.80E-03,0,7.75E+08
125,1,1.59E-05,-1.37E-04,2.17E-06,-1.20E-04,-1.14E-04,-1.37E-04,2.17E-06,-2.3303,8.6882,7.7051,8.6882,-2.3303,1.2587,-5.24E+07,8.76E+07,-3.37E+07,3.72E+07,-5.24E+07,8.76E+07,0,8.78E-03,6.80E-07,1.86E-03,0,8.78E-03,0,7.61E+08,1.55E+05,3.21E+08,0,7.61E+08,-1.37E-04,2.17E-06,-2.3303,8.6882,-5.24E+07,8.76E+07,0,8.78E-03,0,7.61E+08
126,1,1.60E-05,-1.37E-04,2.07E-06,-1.19E-04,-1.13E-04,-1.37E-04,2.07E-06,-2.7718,8.7387,7.8484,8.7387,-2.7718,0.90226,-6.83E+07,7.38E+07,-2.72E+07,3.15E+07,-6.83E+07,7.38E+07,0,8.84E-03,1.09E-06,1.86E-03,0,8.84E-03,0,7.53E+08,3.13E+05,3.22E+08,0,7.53E+08,-1.37E-04,2.07E-06,-2.7718,8.7387,-6.83E+07,7.38E+07,0,8.84E-03,0,7.53E+08
127,1,1.62E-05,-1.37E-04,1.99E-06,-1.18E-04,-1.12E-04,-1.37E-04,1.99E-06,-2.4524,8.6479,7.8562,8.6479,-2.4524,0.81877,-7.66E+07,7.70E+07,-2.62E+07,1.91E+07,-7.66E+07,7.70E+07,0,8.76E-03,7.95E-07,1.85E-03,0,8.76E-03,0,7.56E+08,1.43E+05,3.21E+08,0,7.56E+08,-1.37E-04,1.99E-06,-2.4524,8.6479,-7.66E+07,7.70E+07,0,8.76E-03,0,7.56E+08
128,1,1.63E-05,-1.37E-04,1.93E-06,-1.17E-04,-1.11E-04,-1.37E-04,1.93E-06,-2.1063,8.6095,7.8516,8.6095,-2.1063,1.5403,-4.53E+07,5.32E+07,-2.43E+07,2.04E+07,-4.53E+07,5.32E+07,0,8.81E-03,6.27E-07,1.85E-03,0,8.81E-03,0,7.48E+08,2.02E+05,3.21E+08,0,7.48E+08,-1.37E-04,1.93E-06,-2.1063,8.6095,-4.53E+07,5.32E+07,0,8.81E-03,0,7.48E+08
129,1,1.64E-05,-1.37E-04,1.98E-06,-1.16E-04,-1.10E-04,-1.37E-04,1.98E-06,-1.1817,8.6616,7.8466,8.6616,-1.1817,1.8152,-4.15E+07,6.17E+07,-1.74E+07,3.07E+07,-4.15E+07,6.17E+07,0,8.78E-03,8.14E-07,1.85E-03,0,8.78E-03,0,7.63E+08,2.26E+05,3.21E+08,0,7.63E+08,-1.37E-04,1.98E-06,-1.1817,8.6616,-4.15E+07,6.17E+07,0,8.78E-03,0,7.63E+08
130,1,1.66E-05,-1.37E-04,2.01E-06,-1.15E-04,-1.09E-04,-1.37E-04,2.01E-06,-1.4313,8.7203,7.8425,8.7203,-1.4313,2.916,-5.31E+07,4.67E+07,-3.03E+07,1.86E+07,-5.31E+07,4.67E+07,0,8.85E-03,7.19E-07,1.85E-03,0,8.85E-03,0,7.55E+08,1.73E+05,3.22E+08,0,7.55E+08,-1.37E-04,2.01E-06,-1.4313,8.7203,-5.31E+07,4.67E+07,0,8.85E-03,0,7.55E+08
131,1,1.67E-05,-1.37E-04,2.08E-06,-1.14E-04,-1.07E-04,-1.37E-04,2.08E-06,-1.1298,8.7534,7.8415,8.7534,-1.1298,2.3224,-5.73E+07,5.79E+07,-2.98E+07,1.85E+07,-5.73E+07,5.79E+07,0,8.83E-03,5.03E-07,1.86E-03,0,8.83E-03,0,7.74E+08,91305,3.21E+08,0,7.74E+08,-1.37E-04,2.08E-06,-1.1298,8.7534,-5.73E+07,5.79E+07,0,8.83E-03,0,7.74E+08
132,1,1.68E-05,-1.37E-04,2.19E-06,-1.13E-04,-1.06E-04,-1.37E-04,2.19E-06,-1.1621,8.7103,7.8869,8.7103,-1.1621,1.7178,-4.53E+07,5.30E+07,-1.78E+07,1.41E+07,-4.53E+07,5.30E+07,0,8.80E-03,8.74E-07,1.86E-03,0,8.80E-03,0,7.75E+08,1.89E+05,3.20E+08,0,7.75E+08,-1.37E-04,2.19E-06,-1.1621,8.7103,-4.53E+07,5.30E+07,0,8.80E-03,0,7.75E+08
133,1,1.69E-05,-1.37E-04,2.20E-06,-1.12E-04,-1.05E-04,-1.37E-04,2.20E-06,-1.5756,8.621,7.8665,8.621,-1.5756,1.1974,-4.89E+07,5.02E+07,-1.79E+07,1.45E+07,-4.89E+07,5.02E+07,0,8.74E-03,1.05E-06,1.85E-03,0,8.74E-03,0,7.73E+08,2.26E+05,3.18E+08,0,7.73E+08,-1.37E-04,2.20E-06,-1.5756,8.621,-4.89E+07,5.02E+07,0,8.74E-03,0,7.73E+08
134,1,1.71E-05,-1.37E-04,2.11E-06,-1.11E-04,-1.04E-04,-1.37E-04,2.11E-06,-1.9945,8.6391,7.8298,8.6391,-1.9945,0.77797,-5.26E+07,4.62E+07,-1.79E+07,2.01E+07,-5.26E+07,4.62E+07,0,8.73E-03,1.13E-06,1.86E-03,0,8.73E-03,0,7.78E+08,3.43E+05,3.22E+08,0,7.78E+08,-1.37E-04,2.11E-06,-1.9945,8.6391,-5.26E+07,4.62E+07,0,8.73E-03,0,7.78E+08
135,1,1.72E-05,-1.37E-04,1.99E-06,-1.10E-04,-1.03E-04,-1.37E-04,1.99E-06,-2.1158,8.6244,7.8316,8.6244,-2.1158,0.98052,-5.63E+07,6.77E+07,-1.25E+07,1.57E+07,-5.63E+07,6.77E+07,0,8.79E-03,5.02E-07,1.85E-03,0,8.79E-03,0,7.74E+08,1.72E+05,3.22E+08,0,7.74E+08,-1.37E-04,1.99E-06,-2.1158,8.6244,-5.63E+07,6.77E+07,0,8.79E-03,0,7.74E+08
136,1,1.73E-05,-1.37E-04,1.89E-06,-1.09E-04,-1.02E-04,-1.37E-04,1.89E-06,-1.6563,8.6078,7.7999,8.6078,-1.6563,1.344,-5.52E+07,5.57E+07,-1.22E+07,1.46E+07,-5.52E+07,5.57E+07,0,8.79E-03,6.60E-07,1.86E-03,0,8.79E-03,0,7.71E+08,99036,3.21E+08,0,7.71E+08,-1.37E-04,1.89E-06,-1.6563,8.6078,-5.52E+07,5.57E+07,0,8.79E-03,0,7.71E+08
137,1,1.75E-05,-1.37E-04,1.91E-06,-1.08E-04,-1.01E-04,-1.37E-04,1.91E-06,-1.0918,8.6508,7.8479,8.6508,-1.0918,1.5509,-4.20E+07,6.31E+07,-1.43E+07,1.62E+07,-4.20E+07,6.31E+07,0,8.79E-03,7.55E-07,1.85E-03,0,8.79E-03,0,7.64E+08,1.47E+05,3.21E+08,0,7.64E+08,-1.37E-04,1.91E-06,-1.0918,8.6508,-4.20E+07,6.31E+07,0,8.79E-03,0,7.64E+08
138,1,1.76E-05,-1.37E-04,1.96E-06,-1.07E-04,-9.97E-05,-1.37E-04,1.96E-06,-0.65751,8.7145,7.8846,8.7145,-0.65751,2.0933,-5.23E+07,5.93E+07,-1.52E+07,1.15E+07,-5.23E+07,5.93E+07,0,8.78E-03,5.46E-07,1.85E-03,0,8.78E-03,0,7.65E+08,1.63E+05,3.22E+08,0,7.65E+08,-1.37E-04,1.96E-06,-0.65751,8.7145,-5.23E+07,5.93E+07,0,8.78E-03,0,7.65E+08
139,1,1.77E-05,-1.37E-04,2.12E-06,-1.06E-04,-9.86E-05,-1.37E-04,2.12E-06,-1.1117,8.7244,7.8707,8.7244,-1.1117,1.8388,-6.27E+07,4.29E+07,-1.15E+07,1.19E+07,-6.27E+07,4.29E+07,0,8.82E-03,6.60E-07,1.85E-03,0,8.82E-03,0,7.59E+08,1.79E+05,3.22E+08,0,7.59E+08,-1.37E-04,2.12E-06,-1.1117,8.7244,-6.27E+07,4.29E+07,0,8.82E-03,0,7.59E+08
140,1,1.78E-05,-1.37E-04,2.17E-06,-1.05E-04,-9.75E-05,-1.37E-04,2.17E-06,-0.91074,8.6905,7.8924,8.6905,-0.91074,1.3513,-4.91E+07,4.18E+07,-9.95E+06,1.12E+07,-4.91E+07,4.18E+07,0,8.84E-03,6.72E-07,1.86E-03,0,8.84E-03,0,7.52E+08,1.82E+05,3.20E+08,0,7.52E+08,-1.37E-04,2.17E-06,-0.91074,8.6905,-4.91E+07,4.18E+07,0,8.84E-03,0,7.52E+08
141,1,1.80E-05,-1.37E-04,2.19E-06,-1.04E-04,-9.64E-05,-1.37E-04,2.19E-06,-1.8578,8.6805,7.8565,8.6805,-1.8578,0.81163,-4.17E+07,4.96E+07,-1.10E+07,1.22E+07,-4.17E+07,4.96E+07,0,8.78E-03,8.87E-07,1.86E-03,0,8.78E-03,0,7.55E+08,2.42E+05,3.21E+08,0,7.55E+08,-1.37E-04,2.19E-06,-1.8578,8.6805,-4.17E+07,4.96E+07,0,8.78E-03,0,7.55E+08
142,1,1.81E-05,-1.37E-04,2.10E-06,-1.03E-04,-9.53E-05,-1.37E-04,2.10E-06,-1.9105,8.6296,7.8422,8.6296,-1.9105,1.1493,-5.06E+07,4.53E+07,-6.65E+06,1.35E+07,-5.06E+07,4.53E+07,0,8.79E-03,7.11E-07,1.86E-03,0,8.79E-03,0,7.61E+08,1.72E+05,3.21E+08,0,7.61E+08,-1.37E-04,2.10E-06,-1.9105,8.6296,-5.06E+07,4.53E+07,0,8.79E-03,0,7.61E+08
143,1,1.82E-05,-1.37E-04,2.00E-06,-1.02E-04,-9.42E-05,-1.37E-04,2.00E-06,-2.2796,8.6057,7.8578,8.6057,-2.2796,0.98453,-3.88E+07,4.55E+07,-8.53E+06,8.84E+06,-3.88E+07,4.55E+07,0,8.81E-03,6.88E-07,1.86E-03,0,8.81E-03,0,7.65E+08,1.87E+05,3.20E+08,0,7.65E+08,-1.37E-04,2.00E-06,-2.2796,8.6057,-3.88E+07,4.55E+07,0,8.81E-03,0,7.65E+08
144,1,1.84E-05,-1.37E-04,1.93E-06,-1.01E-04,-9.31E-05,-1.37E-04,1.93E-06,-1.7631,8.578,7.8725,8.578,-1.7631,1.346,-3.65E+07,4.98E+07,-7.31E+06,8.04E+06,-3.65E+07,4.98E+07,0,8.82E-03,6.21E-07,1.85E-03,0,8.82E-03,0,7.71E+08,2.06E+05,3.20E+08,0,7.71E+08,-1.37E-04,1.93E-06,-1.7631,8.578,-3.65E+07,4.98E+07,0,8.82E-03,0,7.71E+08
145,1,1.85E-05,-1.37E-04,1.95E-06,-1.00E-04,-9.20E-05,-1.37E-04,1.95E-06,-1.0236,8.6196,7.8256,8.6196,-1.0236,1.7318,-3.36E+07,6.34E+07,-1.05E+07,6.88E+06,-3.36E+07,6.34E+07,0,8.85E-03,7.65E-07,1.85E-03,0,8.85E-03,0,7.77E+08,1.30E+05,3.22E+08,0,7.77E+08,-1.37E-04,1.95E-06,-1.0236,8.6196,-3.36E+07,6.34E+07,0,8.85E-03,0,7.77E+08
146,1,1.86E-05,-1.37E-04,2.04E-06,-9.89E-05,-9.09E-05,-1.37E-04,2.04E-06,-0.54189,8.694,7.8804,8.694,-0.54189,2.0061,-3.30E+07,3.93E+07,-9.16E+06,6.13E+06,-3.30E+07,3.93E+07,0,8.83E-03,6.29E-07,1.86E-03,0,8.83E-03,0,7.88E+08,2.07E+05,3.22E+08,0,7.88E+08,-1.37E-04,2.04E-06,-0.54189,8.694,-3.30E+07,3.93E+07,0,8.83E-03,0,7.88E+08
147,1,1.87E-05,-1.37E-04,2.14E-06,-9.79E-05,-8.98E-05,-1.37E-04,2.14E-06,-1.0608,8.7058,7.8673,8.7058,-1.0608,1.8297,-4.07E+07,4.11E+07,-7.54E+06,5.78E+06,-4.07E+07,4.11E+07,0,8.82E-03,5.18E-07,1.85E-03,0,8.82E-03,0,7.74E+08,1.56E+05,3.23E+08,0,7.74E+08,-1.37E-04,2.14E-06,-1.0608,8.7058,-4.07E+07,4.11E+07,0,8.82E-03,0,7.74E+08
148,1,1.89E-05,-1.37E-04,2.15E-06,-9.69E-05,-8.87E-05,-1.37E-04,2.15E-06,-1.3517,8.7063,7.8808,8.7063,-1.3517,1.5456,-4.96E+07,4.04E+07,-7.93E+06,7.23E+06,-4.96E+07,4.04E+07,0,8.85E-03,6.57E-07,1.86E-03,0,8.85E-03,0,7.77E+08,1.77E+05,3.21E+08,0,7.77E+08,-1.37E-04,2.15E-06,-1.3517,8.7063,-4.96E+07,4.04E+07,0,8.85E-03,0,7.77E+08
149,1,1.90E-05,-1.37E-04,2.11E-06,-9.59E-05,-8.76E-05,-1.37E-04,2.11E-06,-1.9006,8.6477,7.8947,8.6477,-1.9006,1.0534,-4.15E+07,4.09E+07,-6.85E+06,6.59E+06,-4.15E+07,4.09E+07,0,8.81E-03,8.10E-07,1.86E-03,0,8.81E-03,0,7.55E+08,1.27E+05,3.21E+08,0,7.55E+08,-1.37E-04,2.11E-06,-1.9006,8.6477,-4.15E+07,4.09E+07,0,8.81E-03,0,7.55E+08
150,1,1.91E-05,-1.37E-04,2.07E-06,-9.48E-05,-8.65E-05,-1.37E-04,2.07E-06,-2.2038,8.5964,7.907,8.5964,-2.2038,0.82197,-3.99E+07,4.30E+07,-5.84E+06,6.18E+06,-3.99E+07,4.30E+07,0,8.82E-03,6.48E-07,1.85E-03,0,8.82E-03,0,7.55E+08,1.05E+05,3.20E+08,0,7.55E+08,-1.37E-04,2.07E-06,-2.2038,8.5964,-3.99E+07,4.30E+07,0,8.82E-03,0,7.55E+08
151,1,1.93E-05,-1.37E-04,2.03E-06,-9.38E-05,-8.54E-05,-1.37E-04,2.03E-06,-1.8533,8.6025,7.8599,8.6025,-1.8533,0.63937,-3.27E+07,4.38E+07,-5.51E+06,5.80E+06,-3.27E+07,4.38E+07,0,8.77E-03,6.07E-07,1.86E-03,0,8.77E-03,0,7.52E+08,1.09E+05,3.21E+08,0,7.52E+08,-1.37E-04,2.03E-06,-1.8533,8.6025,-3.27E+07,4.38E+07,0,8.77E-03,0,7.52E+08
152,1,1.94E-05,-1.37E-04,1.97E-06,-9.28E-05,-8.43E-05,-1.37E-04,1.97E-06,-1.2732,8.6393,7.8564,8.6393,-1.2732,1.1475,-3.95E+07,3.67E+07,-5.95E+06,5.05E+06,-3.95E+07,3.67E+07,0,8.81E-03,5.12E-07,1.86E-03,0,8.81E-03,0,7.61E+08,1.26E+05,3.21E+08,0,7.61E+08,-1.37E-04,1.97E-06,-1.2732,8.6393,-3.95E+07,3.67E+07,0,8.81E-03,0,7.61E+08
153,1,1.95E-05,-1.37E-04,1.98E-06,-9.18E-05,-8.32E-05,-1.37E-04,1.98E-06,-1.2139,8.6303,7.8919,8.6303,-1.2139,1.5535,-2.59E+07,3.54E+07,-5.04E+06,4.89E+06,-2.59E+07,3.54E+07,0,8.79E-03,5.53E-07,1.85E-03,0,8.79E-03,0,7.52E+08,1.54E+05,3.21E+08,0,7.52E+08,-1.37E-04,1.98E-06,-1.2139,8.6303,-2.59E+07,3.54E+07,0,8.79E-03,0,7.52E+08
154,1,1.96E-05,-1.37E-04,2.01E-06,-9.08E-05,-8.21E-05,-1.37E-04,2.01E-06,-1.2428,8.643,7.9153,8.643,-1.2428,1.8577,-4.17E+07,4.06E+07,-5.62E+06,5.13E+06,-4.17E+07,4.06E+07,0,8.82E-03,9.83E-07,1.85E-03,0,8.82E-03,0,7.73E+08,2.35E+05,3.22E+08,0,7.73E+08,-1.37E-04,2.01E-06,-1.2428,8.643,-4.17E+07,4.06E+07,0,8.82E-03,0,7.73E+08
155,1,1.98E-05,-1.37E-04,2.07E-06,-8.97E-05,-8.10E-05,-1.37E-04,2.07E-06,-1.1639,8.6308,7.9114,8.6308,-1.1639,1.823,-4.29E+07,3.81E+07,-4.65E+06,4.72E+06,-4.29E+07,3.81E+07,0,8.81E-03,5.01E-07,1.85E-03,0,8.81E-03,0,7.63E+08,1.80E+05,3.21E+08,0,7.63E+08,-1.37E-04,2.07E-06,-1.1639,8.6308,-4.29E+07,3.81E+07,0,8.81E-03,0,7.63E+08
156,1,1.99E-05,-1.37E-04,2.13E-06,-8.87E-05,-7.99E-05,-1.37E-04,2.13E-06,-0.76193,8.7056,7.9079,8.7056,-0.76193,1.2632,-3.63E+07,4.61E+07,-4.43E+06,4.28E+06,-3.63E+07,4.61E+07,0,8.81E-03,3.90E-07,1.85E-03,0,8.81E-03,0,7.76E+08,1.18E+05,3.22E+08,0,7.76E+08,-1.37E-04,2.13E-06,-0.76193,8.7056,-3.63E+07,4.61E+07,0,8.81E-03,0,7.76E+08
157,1,2.00E-05,-1.37E-04,2.14E-06,-8.77E-05,-7.88E-05,-1.37E-04,2.14E-06,-1.0266,8.6956,7.876,8.6956,-1.0266,1.0766,-3.98E+07,2.94E+07,-4.94E+06,3.27E+06,-3.98E+07,2.94E+07,0,8.80E-03,5.20E-07,1.86E-03,0,8.80E-03,0,7.75E+08,99532,3.21E+08,0,7.75E+08,-1.37E-04,2.14E-06,-1.0266,8.6956,-3.98E+07,2.94E+07,0,8.80E-03,0,7.75E+08
158,1,2.02E-05,-1.37E-04,2.08E-06,-8.67E-05,-7.77E-05,-1.37E-04,2.08E-06,-1.5776,8.6126,7.9081,8.6126,-1.5776,0.88442,-3.28E+07,2.87E+07,-4.50E+06,4.73E+06,-3.28E+07,2.87E+07,0,8.84E-03,7.34E-07,1.86E-03,0,8.84E-03,0,7.71E+08,2.52E+05,3.21E+08,0,7.71E+08,-1.37E-04,2.08E-06,-1.5776,8.6126,-3.28E+07,2.87E+07,0,8.84E-03,0,7.71E+08
159,1,2.03E-05,-1.37E-04,2.03E-06,-8.56E-05,-7.66E-05,-1.37E-04,2.03E-06,-1.8168,8.6074,7.8601,8.6074,-1.8168,0.72427,-3.84E+07,3.83E+07,-4.15E+06,3.42E+06,-3.84E+07,3.83E+07,0,8.86E-03,3.71E-07,1.86E-03,0,8.86E-03,0,7.67E+08,1.04E+05,3.21E+08,0,7.67E+08,-1.37E-04,2.03E-06,-1.8168,8.6074,-3.84E+07,3.83E+07,0,8.86E-03,0,7.67E+08
160,1,2.04E-05,-1.37E-04,1.97E-06,-8.46E-05,-7.55E-05,-1.37E-04,1.97E-06,-1.3465,8.6102,7.8873,8.6102,-1.3465,1.5385,-3.39E+07,5.12E+07,-3.36E+06,4.82E+06,-3.39E+07,5.12E+07,0,8.80E-03,2.94E-07,1.85E-03,0,8.80E-03,0,7.67E+08,90037,3.21E+08,0,7.67E+08,-1.37E-04,1.97E-06,-1.3465,8.6102,-3.39E+07,5.12E+07,0,8.80E-03,0,7.67E+08
161,1,2.05E-05,-1.37E-04,1.97E-06,-8.36E-05,-7.44E-05,-1.37E-04,1.97E-06,-1.1735,8.6026,7.9004,8.6026,-1.1735,1.253,-3.17E+07,3.17E+07,-2.92E+06,3.98E+06,-3.17E+07,3.17E+07,0,8.81E-03,3.94E-07,1.86E-03,0,8.81E-03,0,7.60E+08,1.23E+05,3.21E+08,0,7.60E+08,-1.37E-04,1.97E-06,-1.1735,8.6026,-3.17E+07,3.17E+07,0,8.81E-03,0,7.60E+08
162,1,2.07E-05,-1.37E-04,2.00E-06,-8.26E-05,-7.33E-05,-1.37E-04,2.00E-06,-0.92448,8.6951,7.9045,8.6951,-0.92448,1.2286,-3.58E+07,2.92E+07,-3.01E+06,3.00E+06,-3.58E+07,2.92E+07,0,8.78E-03,6.07E-07,1.85E-03,0,8.78E-03,0,7.53E+08,2.12E+05,3.22E+08,0,7.53E+08,-1.37E-04,2.00E-06,-0.92448,8.6951,-3.58E+07,2.92E+07,0,8.78E-03,0,7.53E+08
163,1,2.08E-05,-1.37E-04,2.07E-06,-8.16E-05,-7.22E-05,-1.37E-04,2.07E-06,-0.63416,8.6772,7.9183,8.6772,-0.63416,1.3805,-3.02E+07,3.22E+07,-3.06E+06,3.23E+06,-3.02E+07,3.22E+07,0,8.80E-03,7.07E-07,1.86E-03,0,8.80E-03,0,7.52E+08,2.35E+05,3.21E+08,0,7.52E+08,-1.37E-04,2.07E-06,-0.63416,8.6772,-3.02E+07,3.22E+07,0,8.80E-03,0,7.52E+08
164,1,2.09E-05,-1.37E-04,2.10E-06,-8.06E-05,-7.11E-05,-1.37E-04,2.10E-06,-0.64115,8.6706,7.9043,8.6706,-0.64115,0.88199,-4.38E+07,3.80E+07,-3.07E+06,2.89E+06,-4.38E+07,3.80E+07,0,8.79E-03,4.36E-07,1.85E-03,0,8.79E-03,0,7.54E+08,1.37E+05,3.21E+08,0,7.54E+08,-1.37E-04,2.10E-06,-0.64115,8.6706,-4.38E+07,3.80E+07,0,8.79E-03,0,7.54E+08
165,1,2.11E-05,-1.37E-04,2.10E-06,-7.95E-05,-7.00E-05,-1.37E-04,2.10E-06,-1.4435,8.6154,7.8793,8.6154,-1.4435,1.3698,-3.38E+07,3.16E+07,-3.17E+06,3.00E+06,-3.38E+07,3.16E+07,0,8.74E-03,4.25E-07,1.85E-03,0,8.74E-03,0,7.53E+08,66794,3.21E+08,0,7.53E+08,-1.37E-04,2.10E-06,-1.4435,8.6154,-3.38E+07,3.16E+07,0,8.74E-03,0,7.53E+08
166,1,2.12E-05,-1.37E-04,2.04E-06,-7.85E-05,-6.89E-05,-1.37E-04,2.04E-06,-1.2127,8.6196,7.8876,8.6196,-1.2127,1.0096,-3.31E+07,2.50E+07,-2.97E+06,2.77E+06,-3.31E+07,2.50E+07,0,8.81E-03,4.12E-07,1.86E-03,0,8.81E-03,0,7.66E+08,1.01E+05,3.21E+08,0,7.66E+08,-1.37E-04,2.04E-06,-1.2127,8.6196,-3.31E+07,2.50E+07,0,8.81E-03,0,7.66E+08
167,1,2.13E-05,-1.37E-04,2.04E-06,-7.75E-05,-6.78E-05,-1.37E-04,2.04E-06,-1.3279,8.6018,7.849,8.6018,-1.3279,0.68355,-3.35E+07,2.87E+07,-3.00E+06,2.91E+06,-3.35E+07,2.87E+07,0,8.80E-03,7.97E-07,1.86E-03,0,8.80E-03,0,7.74E+08,2.11E+05,3.20E+08,0,7.74E+08,-1.37E-04,2.04E-06,-1.3279,8.6018,-3.35E+07,2.87E+07,0,8.80E-03,0,7.74E+08
168,1,2.14E-05,-1.37E-04,2.02E-06,-7.65E-05,-6.67E-05,-1.37E-04,2.02E-06,-1.1118,8.612,7.8669,8.612,-1.1118,0.8657,-2.62E+07,4.30E+07,-2.30E+06,3.43E+06,-2.62E+07,4.30E+07,0,8.80E-03,5.61E-07,1.85E-03,0,8.80E-03,0,7.75E+08,1.63E+05,3.21E+08,0,7.75E+08,-1.37E-04,2.02E-06,-1.1118,8.612,-2.62E+07,4.30E+07,0,8.80E-03,0,7.75E+08
169,1,2.16E-05,-1.37E-04,2.03E-06,-7.54E-05,-6.56E-05,-1.37E-04,2.03E-06,-0.79561,8.6333,7.8924,8.6333,-0.79561,1.0594,-2.76E+07,2.94E+07,-2.67E+06,3.23E+06,-2.76E+07,2.94E+07,0,8.84E-03,2.76E-07,1.86E-03,0,8.84E-03,0,7.85E+08,76687,3.22E+08,0,7.85E+08,-1.37E-04,2.03E-06,-0.79561,8.6333,-2.76E+07,2.94E+07,0,8.84E-03,0,7.85E+08
170,1,2.17E-05,-1.37E-04,2.03E-06,-7.44E-05,-6.45E-05,-1.37E-04,2.03E-06,-0.64727,8.6325,7.9405,8.6325,-0.64727,0.86386,-2.76E+07,2.68E+07,-2.74E+06,4.04E+06,-2.76E+07,2.68E+07,0,8.81E-03,6.09E-07,1.85E-03,0,8.81E-03,0,7.72E+08,75629,3.22E+08,0,7.72E+08,-1.37E-04,2.03E-06,-0.64727,8.6325,-2.76E+07,2.68E+07,0,8.81E-03,0,7.72E+08
171,1,2.18E-05,-1.37E-04,2.04E-06,-7.34E-05,-6.34E-05,-1.37E-04,2.04E-06,-0.75094,8.6339,7.9506,8.6339,-0.75094,1.3864,-2.82E+07,2.49E+07,-2.77E+06,2.87E+06,-2.82E+07,2.49E+07,0,8.83E-03,8.98E-07,1.85E-03,0,8.83E-03,0,7.76E+08,3.09E+05,3.21E+08,0,7.76E+08,-1.37E-04,2.04E-06,-0.75094,8.6339,-2.82E+07,2.49E+07,0,8.83E-03,0,7.76E+08
172,1,2.20E-05,-1.37E-04,2.04E-06,-7.24E-05,-6.23E-05,-1.37E-04,2.04E-06,-0.92113,8.6517,7.9437,8.6517,-0.92113,1.461,-2.47E+07,2.89E+07,-2.32E+06,3.75E+06,-2.47E+07,2.89E+07,0,8.81E-03,6.43E-07,1.86E-03,0,8.81E-03,0,7.67E+08,1.19E+05,3.20E+08,0,7.67E+08,-1.37E-04,2.04E-06,-0.92113,8.6517,-2.47E+07,2.89E+07,0,8.81E-03,0,7.67E+08
173,1,2.21E-05,-1.37E-04,2.03E-06,-7.14E-05,-6.12E-05,-1.37E-04,2.03E-06,-1.5114,8.6798,7.8714,8.6798,-1.5114,1.2153,-2.46E+07,2.99E+07,-2.33E+06,2.10E+06,-2.46E+07,2.99E+07,0,8.82E-03,2.72E-07,1.86E-03,0,8.82E-03,0,7.54E+08,79156,3.22E+08,0,7.54E+08,-1.37E-04,2.03E-06,-1.5114,8.6798,-2.46E+07,2.99E+07,0,8.82E-03,0,7.54E+08
174,1,2.22E-05,-1.37E-04,2.06E-06,-7.03E-05,-6.01E-05,-1.37E-04,2.06E-06,-1.0767,8.6277,7.9079,8.6277,-1.0767,1.1195,-3.01E+07,2.50E+07,-2.63E+06,2.64E+06,-3.01E+07,2.50E+07,0,8.81E-03,4.49E-07,1.86E-03,0,8.81E-03,0,7.55E+08,1.20E+05,3.22E+08,0,7.55E+08,-1.37E-04,2.06E-06,-1.0767,8.6277,-3.01E+07,2.50E+07,0,8.81E-03,0,7.55E+08
175,1,2.23E-05,-1.37E-04,2.10E-06,-6.93E-05,-5.90E-05,-1.37E-04,2.10E-06,-1.0212,8.5992,7.8792,8.5992,-1.0212,1.0223,-2.31E+07,2.81E+07,-2.24E+06,2.17E+06,-2.31E+07,2.81E+07,0,8.80E-03,5.02E-07,1.86E-03,0,8.80E-03,0,7.49E+08,1.11E+05,3.22E+08,0,7.49E+08,-1.37E-04,2.10E-06,-1.0212,8.5992,-2.31E+07,2.81E+07,0,8.80E-03,0,7.49E+08
176,1,2.25E-05,-1.37E-04,2.09E-06,-6.83E-05,-5.79E-05,-1.37E-04,2.09E-06,-1.1868,8.6122,7.8844,8.6122,-1.1868,0.88313,-2.34E+07,2.31E+07,-1.90E+06,2.74E+06,-2.34E+07,2.31E+07,0,8.80E-03,4.37E-07,1.85E-03,0,8.80E-03,0,7.56E+08,1.44E+05,3.21E+08,0,7.56E+08,-1.37E-04,2.09E-06,-1.1868,8.6122,-2.34E+07,2.31E+07,0,8.80E-03,0,7.56E+08
177,1,2.26E-05,-1.37E-04,2.08E-06,-6.73E-05,-5.68E-05,-1.37E-04,2.08E-06,-1.1647,8.5987,7.884,8.5987,-1.1647,1.4926,-2.06E+07,3.06E+07,-1.99E+06,2.17E+06,-2.06E+07,3.06E+07,0,8.80E-03,5.30E-07,1.85E-03,0,8.80E-03,0,7.55E+08,1.72E+05,3.21E+08,0,7.55E+08,-1.37E-04,2.08E-06,-1.1647,8.5987,-2.06E+07,3.06E+07,0,8.80E-03,0,7.55E+08
178,1,2.27E-05,-1.37E-04,2.02E-06,-6.63E-05,-5.57E-05,-1.37E-04,2.02E-06,-1.5724,8.6514,7.8778,8.6514,-1.5724,1.4836,-2.02E+07,2.42E+07,-2.57E+06,2.09E+06,-2.02E+07,2.42E+07,0,8.85E-03,3.81E-07,1.86E-03,0,8.85E-03,0,7.66E+08,1.02E+05,3.21E+08,0,7.66E+08,-1.37E-04,2.02E-06,-1.5724,8.6514,-2.02E+07,2.42E+07,0,8.85E-03,0,7.66E+08
179,1,2.29E-05,-1.37E-04,2.04E-06,-6.52E-05,-5.46E-05,-1.37E-04,2.04E-06,-1.5433,8.6926,7.9313,8.6926,-1.5433,1.205,-3.22E+07,2.65E+07,-2.18E+06,2.40E+06,-3.22E+07,2.65E+07,0,8.82E-03,4.39E-07,1.85E-03,0,8.82E-03,0,7.78E+08,1.36E+05,3.21E+08,0,7.78E+08,-1.37E-04,2.04E-06,-1.5433,8.6926,-3.22E+07,2.65E+07,0,8.82E-03,0,7.78E+08
180,1,2.30E-05,-1.37E-04,2.08E-06,-6.42E-05,-5.35E-05,-1.37E-04,2.08E-06,-0.82808,8.6474,7.9779,8.6474,-0.82808,1.1339,-1.97E+07,2.24E+07,-3.05E+06,3.01E+06,-1.97E+07,2.24E+07,0,8.85E-03,6.56E-07,1.86E-03,0,8.85E-03,0,7.92E+08,1.70E+05,3.20E+08,0,7.92E+08,-1.37E-04,2.08E-06,-0.82808,8.6474,-1.97E+07,2.24E+07,0,8.85E-03,0,7.92E+08
181,1,2.31E-05,-1.37E-04,2.08E-06,-6.32E-05,-5.24E-05,-1.37E-04,2.08E-06,-0.68723,8.611,7.8969,8.611,-0.68723,1.099,-2.18E+07,2.50E+07,-2.15E+06,2.09E+06,-2.18E+07,2.50E+07,0,8.83E-03,5.14E-07,1.86E-03,0,8.83E-03,0,7.80E+08,1.09E+05,3.21E+08,0,7.80E+08,-1.37E-04,2.08E-06,-0.68723,8.611,-2.18E+07,2.50E+07,0,8.83E-03,0,7.80E+08
182,1,2.32E-05,-1.37E-04,2.05E-06,-6.22E-05,-5.13E-05,-1.37E-04,2.05E-06,-1.1904,8.6137,7.8856,8.6137,-1.1904,1.621,-1.94E+07,2.03E+07,-2.24E+06,1.93E+06,-1.94E+07,2.03E+07,0,8.81E-03,2.91E-07,1.85E-03,0,8.81E-03,0,7.79E+08,74756,3.22E+08,0,7.79E+08,-1.37E-04,2.05E-06,-1.1904,8.6137,-1.94E+07,2.03E+07,0,8.81E-03,0,7.79E+08
183,1,2.34E-05,-1.37E-04,2.04E-06,-6.11E-05,-5.02E-05,-1.37E-04,2.04E-06,-1.0336,8.6334,7.8903,8.6334,-1.0336,1.3255,-2.08E+07,2.67E+07,-2.24E+06,1.99E+06,-2.08E+07,2.67E+07,0,8.80E-03,3.24E-07,1.85E-03,0,8.80E-03,0,7.57E+08,1.03E+05,3.22E+08,0,7.57E+08,-1.37E-04,2.04E-06,-1.0336,8.6334,-2.08E+07,2.67E+07,0,8.80E-03,0,7.57E+08
184,1,2.35E-05,-1.37E-04,2.09E-06,-6.01E-05,-4.91E-05,-1.37E-04,2.09E-06,-0.73886,8.6211,7.8467,8.6211,-0.73886,0.98551,-2.22E+07,1.99E+07,-2.28E+06,2.32E+06,-2.22E+07,1.99E+07,0,8.78E-03,5.95E-07,1.86E-03,0,8.78E-03,0,7.56E+08,1.27E+05,3.21E+08,0,7.56E+08,-1.37E-04,2.09E-06,-0.73886,8.6211,-2.22E+07,1.99E+07,0,8.78E-03,0,7.56E+08
185,1,2.36E-05,-1.37E-04,2.08E-06,-5.91E-05,-4.80E-05,-1.37E-04,2.08E-06,-0.70994,8.601,7.8683,8.601,-0.70994,0.60042,-2.25E+07,2.09E+07,-1.53E+06,2.06E+06,-2.25E+07,2.09E+07,0,8.80E-03,5.31E-07,1.86E-03,0,8.80E-03,0,7.45E+08,1.08E+05,3.21E+08,0,7.45E+08,-1.37E-04,2.08E-06,-0.70994,8.601,-2.25E+07,2.09E+07,0,8.80E-03,0,7.45E+08
186,1,2.37E-05,-1.37E-04,2.04E-06,-5.81E-05,-4.69E-05,-1.37E-04,2.04E-06,-1.133,8.6238,7.9373,8.6238,-1.133,0.46839,-1.99E+07,3.27E+07,-1.61E+06,2.07E+06,-1.99E+07,3.27E+07,0,8.79E-03,2.54E-07,1.85E-03,0,8.79E-03,0,7.52E+08,40485,3.21E+08,0,7.52E+08,-1.37E-04,2.04E-06,-1.133,8.6238,-1.99E+07,3.27E+07,0,8.79E-03,0,7.52E+08
187,1,2.39E-05,-1.37E-04,2.01E-06,-5.71E-05,-4.58E-05,-1.37E-04,2.01E-06,-1.2356,8.6176,7.9537,8.6176,-1.2356,0.5451,-1.78E+07,2.05E+07,-1.86E+06,1.94E+06,-1.78E+07,2.05E+07,0,8.76E-03,4.13E-07,1.86E-03,0,8.76E-03,0,7.54E+08,1.41E+05,3.21E+08,0,7.54E+08,-1.37E-04,2.01E-06,-1.2356,8.6176,-1.78E+07,2.05E+07,0,8.76E-03,0,7.54E+08
188,1,2.40E-05,-1.37E-04,1.98E-06,-5.60E-05,-4.47E-05,-1.37E-04,1.98E-06,-1.1433,8.6045,7.9758,8.6045,-1.1433,0.8745,-1.96E+07,2.16E+07,-2.18E+06,1.54E+06,-1.96E+07,2.16E+07,0,8.84E-03,4.43E-07,1.85E-03,0,8.84E-03,0,7.61E+08,1.49E+05,3.21E+08,0,7.61E+08,-1.37E-04,1.98E-06,-1.1433,8.6045,-1.96E+07,2.16E+07,0,8.84E-03,0,7.61E+08
189,1,2.41E-05,-1.37E-04,1.97E-06,-5.50E-05,-4.36E-05,-1.37E-04,1.97E-06,-0.86001,8.6612,7.931,8.6612,-0.86001,1.1507,-1.55E+07,2.69E+07,-1.89E+06,1.66E+06,-1.55E+07,2.69E+07,0,8.84E-03,4.97E-07,1.86E-03,0,8.84E-03,0,7.70E+08,1.60E+05,3.20E+08,0,7.70E+08,-1.37E-04,1.97E-06,-0.86001,8.6612,-1.55E+07,2.69E+07,0,8.84E-03,0,7.70E+08
190,1,2.43E-05,-1.37E-04,2.00E-06,-5.40E-05,-4.25E-05,-1.37E-04,2.00E-06,-0.47227,8.6832,7.9145,8.6832,-0.47227,1.2966,-1.49E+07,1.97E+07,-1.68E+06,1.89E+06,-1.49E+07,1.97E+07,0,8.82E-03,4.68E-07,1.86E-03,0,8.82E-03,0,7.80E+08,1.25E+05,3.22E+08,0,7.80E+08,-1.37E-04,2.00E-06,-0.47227,8.6832,-1.49E+07,1.97E+07,0,8.82E-03,0,7.80E+08
191,1,2.44E-05,-1.37E-04,2.09E-06,-5.30E-05,-4.14E-05,-1.37E-04,2.09E-06,-0.42329,8.61,7.9147,8.61,-0.42329,1.2916,-1.83E+07,1.69E+07,-1.66E+06,1.63E+06,-1.83E+07,1.69E+07,0,8.81E-03,5.23E-07,1.86E-03,0,8.81E-03,0,7.65E+08,97076,3.21E+08,0,7.65E+08,-1.37E-04,2.09E-06,-0.42329,8.61,-1.83E+07,1.69E+07,0,8.81E-03,0,7.65E+08
192,1,2.45E-05,-1.37E-04,2.15E-06,-5.20E-05,-4.03E-05,-1.37E-04,2.15E-06,-0.67814,8.5934,7.8962,8.5934,-0.67814,1.2216,-2.14E+07,1.46E+07,-1.72E+06,2.16E+06,-2.14E+07,1.46E+07,0,8.84E-03,2.84E-07,1.85E-03,0,8.84E-03,0,7.70E+08,92172,3.22E+08,0,7.70E+08,-1.37E-04,2.15E-06,-0.67814,8.5934,-2.14E+07,1.46E+07,0,8.84E-03,0,7.70E+08
193,1,2.46E-05,-1.37E-04,2.12E-06,-5.09E-05,-3.92E-05,-1.37E-04,2.12E-06,-0.91126,8.5959,7.8666,8.5959,-0.91126,0.47153,-2.14E+07,1.09E+07,-1.77E+06,1.60E+06,-2.14E+07,1.09E+07,0,8.83E-03,4.81E-07,1.85E-03,0,8.83E-03,0,7.68E+08,1.43E+05,3.21E+08,0,7.68E+08,-1.37E-04,2.12E-06,-0.91126,8.5959,-2.14E+07,1.09E+07,0,8.83E-03,0,7.68E+08
194,1,2.48E-05,-1.37E-04,2.07E-06,-4.99E-05,-3.81E-05,-1.37E-04,2.07E-06,-1.2157,8.6102,7.885,8.6102,-1.2157,0.3457,-2.02E+07,2.09E+07,-1.72E+06,1.61E+06,-2.02E+07,2.09E+07,0,8.80E-03,2.86E-07,1.86E-03,0,8.80E-03,0,7.68E+08,56485,3.21E+08,0,7.68E+08,-1.37E-04,2.07E-06,-1.2157,8.6102,-2.02E+07,2.09E+07,0,8.80E-03,0,7.68E+08
195,1,2.49E-05,-1.37E-04,1.98E-06,-4.89E-05,-3.70E-05,-1.37E-04,1.98E-06,-1.3359,8.6313,7.8987,8.6313,-1.3359,0.37616,-1.93E+07,2.05E+07,-1.67E+06,1.57E+06,-1.93E+07,2.05E+07,0,8.82E-03,2.64E-07,1.86E-03,0,8.82E-03,0,7.66E+08,1.07E+05,3.21E+08,0,7.66E+08,-1.37E-04,1.98E-06,-1.3359,8.6313,-1.93E+07,2.05E+07,0,8.82E-03,0,7.66E+08
196,1,2.50E-05,-1.37E-04,1.91E-06,-4.79E-05,-3.59E-05,-1.37E-04,1.91E-06,-0.9403,8.5865,7.9503,8.5865,-0.9403,0.82607,-1.23E+07,1.90E+07,-1.60E+06,1.62E+06,-1.23E+07,1.90E+07,0,8.81E-03,4.11E-07,1.86E-03,0,8.81E-03,0,7.68E+08,81181,3.21E+08,0,7.68E+08,-1.37E-04,1.91E-06,-0.9403,8.5865,-1.23E+07,1.90E+07,0,8.81E-03,0,7.68E+08
197,1,2.52E-05,-1.37E-04,1.95E-06,-4.69E-05,-3.48E-05,-1.37E-04,1.95E-06,-0.66948,8.6036,7.9691,8.6036,-0.66948,1.0944,-1.34E+07,2.19E+07,-1.52E+06,1.33E+06,-1.34E+07,2.19E+07,0,8.79E-03,2.92E-07,1.85E-03,0,8.79E-03,0,7.65E+08,82837,3.21E+08,0,7.65E+08,-1.37E-04,1.95E-06,-0.66948,8.6036,-1.34E+07,2.19E+07,0,8.79E-03,0,7.65E+08
198,1,2.53E-05,-1.37E-04,2.04E-06,-4.58E-05,-3.37E-05,-1.37E-04,2.04E-06,-0.43991,8.6281,7.9244,8.6281,-0.43991,1.39,-2.00E+07,1.95E+07,-1.47E+06,1.40E+06,-2.00E+07,1.95E+07,0,8.80E-03,3.93E-07,1.85E-03,0,8.80E-03,0,7.56E+08,67250,3.21E+08,0,7.56E+08,-1.37E-04,2.04E-06,-0.43991,8.6281,-2.00E+07,1.95E+07,0,8.80E-03,0,7.56E+08
199,1,2.54E-05,-1.37E-04,2.15E-06,-4.48E-05,-3.26E-05,-1.37E-04,2.15E-06,-0.42402,8.6653,7.9039,8.6653,-0.42402,1.2048,-1.95E+07,1.65E+07,-1.24E+06,1.62E+06,-1.95E+07,1.65E+07,0,8.81E-03,6.38E-07,1.85E-03,0,8.81E-03,0,7.53E+08,2.53E+05,3.21E+08,0,7.53E+08,-1.37E-04,2.15E-06,-0.42402,8.6653,-1.95E+07,1.65E+07,0,8.81E-03,0,7.53E+08
200,1,2.55E-05,-1.37E-04,2.17E-06,-4.38E-05,-3.14E-05,-1.37E-04,2.17E-06,-0.60767,8.6629,7.8778,8.6629,-0.60767,1.1656,-1.75E+07,1.43E+07,-1.65E+06,1.80E+06,-1.75E+07,1.43E+07,0,8.79E-03,4.21E-07,1.86E-03,0,8.79E-03,0,7.53E+08,1.38E+05,3.21E+08,0,7.53E+08,-1.37E-04,2.17E-06,-0.60767,8.6629,-1.75E+07,1.43E+07,0,8.79E-03,0,7.53E+08
201,1,2.57E-05,-1.37E-04,2.13E-06,-4.28E-05,-3.03E-05,-1.37E-04,2.13E-06,-1.4579,8.6062,7.8616,8.6062,-1.4579,0.7339,-2.35E+07,1.25E+07,-1.29E+06,1.44E+06,-2.35E+07,1.25E+07,0,8.81E-03,3.05E-07,1.86E-03,0,8.81E-03,0,7.59E+08,1.07E+05,3.21E+08,0,7.59E+08,-1.37E-04,2.13E-06,-1.4579,8.6062,-2.35E+07,1.25E+07,0,8.81E-03,0,7.59E+08
202,1,6.00E-05,,,,,,,,,,,,,,,,,,,,,,,,,,,,,,,,,,,,,,,,
