Unnamed: 0,Steps,Time [s],[A] Directional Deformation Flexible (Min) [m],[B] Directional Deformation Flexible (Max) [m],[C] Directional Deformation SiC (Min) [m],[D] Directional Deformation SiC (Max) [m],[E] Directional Deformation Asperity (Min) [m],[F] Directional Deformation Asperity (Max) [m],[I] Directional Velocity SiC (Min) [m/s],[J] Directional Velocity SiC (Max) [m/s],[K] Directional Velocity Asperity (Min) [m/s],[L] Directional Velocity Asperity (Max) [m/s],[M] Directional Acceleration Flexible (Min) [m/s²],[N] Directional Acceleration Flexible (Max) [m/s²],[O] Directional Acceleration SiC (Min) [m/s²],[P] Directional Acceleration SiC (Max) [m/s²],[Q] Directional Acceleration Asperity (Min) [m/s²],[R] Directional Acceleration Asperity (Max) [m/s²],[S] Equivalent Elastic Strain Flexible (Min) [m/m],[T] Equivalent Elastic Strain Flexible (Max) [m/m],[U] Equivalent Elastic Strain SiC (Min) [m/m],[V] Equivalent Elastic Strain SiC (Max) [m/m],[W] Equivalent Elastic Strain Asperity (Min) [m/m],[X] Equivalent Elastic Strain Asperity (Max) [m/m],[Y] Equivalent Stress Flexible (Min) [Pa],[Z] Equivalent Stress Flexible (Max) [Pa],[AA] Equivalent Stress SiC (Min) [Pa],[AB] Equivalent Stress SiC (Max) [Pa],[AC] Equivalent Stress Asperity (Min) [Pa],[AD] Equivalent Stress Asperity (Max) [Pa],[AE] Directional Deformation 4 (Min) [m],[AF] Directional Deformation 4 (Max) [m],[AG] Directional Velocity 4 (Min) [m/s],[AH] Directional Velocity 4 (Max) [m/s],[AI] Directional Acceleration (Min) [m/s²],[AJ] Directional Acceleration (Max) [m/s²],[AK] Equivalent Elastic Strain 4 (Min) [m/m],[AL] Equivalent Elastic Strain 4 (Max) [m/m],[AM] Equivalent Stress 4 (Min) [Pa],[AN] Equivalent Stress 4 (Max) [Pa]
1,1,1.18E-38,0,0,0,0,0,0,-1,-1,0,0,0,0,0,0,0,0,0,0,0,0,0,0,0,0,0,0,0,0,0,0,-1,0,0,0,0,0,0,0
2,1,1.26E-07,-1.26E-07,0,-1.26E-07,-1.26E-07,0,0,-1,-1,0,0,0,0,0,0,0,0,0,0,0,0,0,0,0,0,0,0,0,0,-1.26E-07,0,-1,0,0,0,0,0,0,0
3,1,2.54E-07,-2.54E-07,0,-2.54E-07,-2.54E-07,0,0,-1,-1,0,0,0,0,0,0,0,0,0,0,0,0,0,0,0,0,0,0,0,0,-2.54E-07,0,-1,0,0,0,0,0,0,0
4,1,3.83E-07,-3.83E-07,0,-3.83E-07,-3.83E-07,0,0,-1,-1,0,0,0,0,0,0,0,0,0,0,0,0,0,0,0,0,0,0,0,0,-3.83E-07,0,-1,0,0,0,0,0,0,0
5,1,5.11E-07,-5.11E-07,0,-5.11E-07,-5.11E-07,0,0,-1,-1,0,0,0,0,0,0,0,0,0,0,0,0,0,0,0,0,0,0,0,0,-5.11E-07,0,-1,0,0,0,0,0,0,0
6,1,6.40E-07,-6.40E-07,0,-6.40E-07,-6.40E-07,0,0,-1,-1,0,0,0,0,0,0,0,0,0,0,0,0,0,0,0,0,0,0,0,0,-6.40E-07,0,-1,0,0,0,0,0,0,0
7,1,7.68E-07,-7.68E-07,0,-7.68E-07,-7.68E-07,0,0,-1,-1,0,0,0,0,0,0,0,0,0,0,0,0,0,0,0,0,0,0,0,0,-7.68E-07,0,-1,0,0,0,0,0,0,0
8,1,8.96E-07,-8.96E-07,0,-8.96E-07,-8.96E-07,0,0,-1,-1,0,0,0,0,0,0,0,0,0,0,0,0,0,0,0,0,0,0,0,0,-8.96E-07,0,-1,0,0,0,0,0,0,0
9,1,1.02E-06,-1.02E-06,0,-1.02E-06,-1.02E-06,0,0,-1,-1,0,0,0,0,0,0,0,0,0,0,0,0,0,0,0,0,0,0,0,0,-1.02E-06,0,-1,0,0,0,0,0,0,0
10,1,1.15E-06,-1.15E-06,0,-1.15E-06,-1.15E-06,0,0,-1,-1,0,0,0,0,0,0,0,0,0,0,0,0,0,0,0,0,0,0,0,0,-1.15E-06,0,-1,0,0,0,0,0,0,0
11,1,1.28E-06,-1.28E-06,0,-1.28E-06,-1.28E-06,0,0,-1,-1,0,0,0,0,0,0,0,0,0,0,0,0,0,0,0,0,0,0,0,0,-1.28E-06,0,-1,0,0,0,0,0,0,0
12,1,1.41E-06,-1.41E-06,6.90E-10,-1.41E-06,-1.40E-06,-9.87E-08,6.90E-10,-1.0214,-0.92603,-0.8359,2.77E-03,-2.69E+07,6.03E+06,-2.69E+07,6.03E+06,-9.49E+06,5.14E+06,0,6.04E-04,0,3.59E-05,0,6.04E-04,0,3.53E+07,0,8.23E+06,0,3.53E+07,-1.41E-06,6.90E-10,-1.0214,2.77E-03,-2.69E+07,6.03E+06,0,6.04E-04,0,3.53E+07
13,1,1.54E-06,-1.54E-06,6.35E-11,-1.54E-06,-1.52E-06,-2.08E-07,6.35E-11,-1.0155,-0.91425,-0.85293,9.18E-04,-6.54E+06,1.69E+07,-6.54E+06,1.69E+07,-2.30E+06,3.30E+06,0,1.23E-03,0,6.38E-05,0,1.23E-03,0,7.16E+07,0,1.32E+07,0,7.16E+07,-1.54E-06,6.35E-11,-1.0155,9.18E-04,-6.54E+06,1.69E+07,0,1.23E-03,0,7.16E+07
14,1,1.67E-06,-1.67E-06,1.30E-10,-1.67E-06,-1.65E-06,-3.17E-07,1.30E-10,-1.0102,-0.9323,-0.85075,1.34E-03,-4.50E+06,6.13E+06,-4.50E+06,6.13E+06,-1.57E+06,3.69E+06,0,1.84E-03,7.50E-10,9.66E-05,0,1.84E-03,0,1.08E+08,90.082,2.04E+07,0,1.08E+08,-1.67E-06,1.30E-10,-1.0102,1.34E-03,-4.50E+06,6.13E+06,0,1.84E-03,0,1.08E+08
15,1,1.80E-06,-1.80E-06,2.21E-10,-1.80E-06,-1.77E-06,-4.27E-07,2.21E-10,-1.0023,-0.943,-0.85719,1.98E-03,-3.59E+06,4.73E+06,-3.07E+06,4.73E+06,-3.59E+06,1.59E+06,0,2.45E-03,6.73E-09,1.30E-04,0,2.45E-03,0,1.43E+08,2826.9,2.75E+07,0,1.43E+08,-1.80E-06,2.21E-10,-1.0023,1.98E-03,-3.59E+06,4.73E+06,0,2.45E-03,0,1.43E+08
16,1,1.92E-06,-1.92E-06,4.13E-10,-1.92E-06,-1.89E-06,-5.36E-07,4.13E-10,-1.0004,-0.94102,-0.84979,2.15E-03,-2.92E+06,2.61E+06,-2.92E+06,2.61E+06,-1.66E+06,1.31E+06,0,3.08E-03,2.66E-08,1.62E-04,0,3.08E-03,0,1.80E+08,11450,3.43E+07,0,1.80E+08,-1.92E-06,4.13E-10,-1.0004,2.15E-03,-2.92E+06,2.61E+06,0,3.08E-03,0,1.80E+08
17,1,2.05E-06,-2.05E-06,5.10E-10,-2.05E-06,-2.01E-06,-6.45E-07,5.10E-10,-1.0016,-0.93627,-0.83948,1.69E-02,-2.92E+06,3.28E+06,-2.92E+06,3.28E+06,-2.73E+06,1.98E+06,0,3.69E-03,3.76E-08,1.95E-04,0,3.69E-03,0,2.15E+08,14108,4.11E+07,0,2.15E+08,-2.05E-06,5.10E-10,-1.0016,1.69E-02,-2.92E+06,3.28E+06,0,3.69E-03,0,2.15E+08
18,1,2.18E-06,-2.18E-06,4.32E-10,-2.18E-06,-2.13E-06,-7.53E-07,4.32E-10,-0.99696,-0.93103,-0.83441,1.04E-02,-1.57E+06,1.88E+06,-1.57E+06,1.66E+06,-1.57E+06,1.88E+06,0,4.33E-03,3.06E-08,2.28E-04,0,4.33E-03,0,2.52E+08,8133.4,4.82E+07,0,2.52E+08,-2.18E-06,4.32E-10,-0.99696,1.04E-02,-1.57E+06,1.88E+06,0,4.33E-03,0,2.52E+08
19,1,2.31E-06,-2.31E-06,1.79E-10,-2.31E-06,-2.25E-06,-8.60E-07,1.79E-10,-0.99545,-0.93469,-0.83732,1.89E-02,-3.36E+06,1.60E+06,-3.36E+06,1.60E+06,-1.80E+06,1.20E+06,0,4.98E-03,4.44E-08,2.62E-04,0,4.98E-03,0,2.90E+08,18928,5.54E+07,0,2.90E+08,-2.31E-06,1.79E-10,-0.99545,1.89E-02,-3.36E+06,1.60E+06,0,4.98E-03,0,2.90E+08
20,1,2.44E-06,-2.43E-06,3.88E-10,-2.43E-06,-2.37E-06,-9.68E-07,3.88E-10,-0.99068,-0.93307,-0.8354,6.41E-03,-3.04E+06,1.65E+06,-3.04E+06,1.65E+06,-1.76E+06,1.10E+06,0,5.63E-03,4.22E-08,2.97E-04,0,5.63E-03,0,3.28E+08,18326,6.27E+07,0,3.28E+08,-2.43E-06,3.88E-10,-0.99068,6.41E-03,-3.04E+06,1.65E+06,0,5.63E-03,0,3.28E+08
21,1,2.57E-06,-2.56E-06,6.50E-10,-2.56E-06,-2.49E-06,-1.08E-06,6.50E-10,-0.98774,-0.93087,-0.84075,4.38E-03,-1.48E+06,2.11E+06,-1.48E+06,2.11E+06,-1.18E+06,1.80E+06,0,6.25E-03,3.49E-08,3.29E-04,0,6.25E-03,0,3.64E+08,15161,6.95E+07,0,3.64E+08,-2.56E-06,6.50E-10,-0.98774,4.38E-03,-1.48E+06,2.11E+06,0,6.25E-03,0,3.64E+08
22,1,2.69E-06,-2.69E-06,8.16E-10,-2.69E-06,-2.61E-06,-1.18E-06,8.16E-10,-0.9876,-0.92637,-0.84009,5.04E-03,-1.18E+06,2.25E+06,-1.18E+06,2.25E+06,-9.25E+05,8.06E+05,0,6.85E-03,2.07E-08,3.61E-04,0,6.85E-03,0,3.98E+08,8239.4,7.62E+07,0,3.98E+08,-2.69E-06,8.16E-10,-0.9876,5.04E-03,-1.18E+06,2.25E+06,0,6.85E-03,0,3.98E+08
23,1,2.82E-06,-2.81E-06,8.35E-10,-2.81E-06,-2.73E-06,-1.29E-06,8.35E-10,-0.98176,-0.92517,-0.83407,5.91E-03,-1.72E+06,2.40E+06,-1.72E+06,2.40E+06,-1.23E+06,8.10E+05,0,7.46E-03,2.37E-08,3.93E-04,0,7.46E-03,0,4.34E+08,8816.6,8.31E+07,0,4.34E+08,-2.81E-06,8.35E-10,-0.98176,5.91E-03,-1.72E+06,2.40E+06,0,7.46E-03,0,4.34E+08
24,1,2.95E-06,-2.94E-06,6.98E-10,-2.94E-06,-2.84E-06,-1.40E-06,6.98E-10,-0.9781,-0.92247,-0.83399,4.87E-03,-1.53E+06,1.24E+06,-1.53E+06,1.24E+06,-9.12E+05,8.69E+05,0,8.07E-03,6.26E-08,4.25E-04,0,8.07E-03,0,4.69E+08,25846,8.98E+07,0,4.69E+08,-2.94E-06,6.98E-10,-0.9781,4.87E-03,-1.53E+06,1.24E+06,0,8.07E-03,0,4.69E+08
25,1,3.08E-06,-3.06E-06,7.11E-10,-3.06E-06,-2.96E-06,-1.50E-06,7.11E-10,-0.97424,-0.91123,-0.82288,5.07E-03,-1.38E+06,9.41E+05,-1.22E+06,7.18E+05,-1.38E+06,9.41E+05,0,8.68E-03,8.91E-08,4.58E-04,0,8.68E-03,0,5.05E+08,36677,9.67E+07,0,5.05E+08,-3.06E-06,7.11E-10,-0.97424,5.07E-03,-1.38E+06,9.41E+05,0,8.68E-03,0,5.05E+08
26,1,3.21E-06,-3.19E-06,6.90E-10,-3.19E-06,-3.08E-06,-1.61E-06,6.90E-10,-0.96979,-0.91002,-0.81577,1.11E-02,-1.08E+06,1.90E+06,-1.08E+06,1.90E+06,-7.04E+05,5.77E+05,0,9.31E-03,8.57E-08,4.91E-04,0,9.31E-03,0,5.41E+08,37059,1.04E+08,0,5.41E+08,-3.19E-06,6.90E-10,-0.96979,1.11E-02,-1.08E+06,1.90E+06,0,9.31E-03,0,5.41E+08
27,1,3.34E-06,-3.31E-06,5.36E-10,-3.31E-06,-3.20E-06,-1.72E-06,5.36E-10,-0.96482,-0.91393,-0.82538,7.06E-03,-9.17E+05,1.38E+06,-9.17E+05,1.38E+06,-7.51E+05,8.45E+05,0,9.91E-03,9.29E-08,5.23E-04,0,9.91E-03,0,5.75E+08,40304,1.10E+08,0,5.75E+08,-3.31E-06,5.36E-10,-0.96482,7.06E-03,-9.17E+05,1.38E+06,0,9.91E-03,0,5.75E+08
28,1,3.46E-06,-3.44E-06,5.03E-10,-3.44E-06,-3.31E-06,-1.82E-06,5.03E-10,-0.95996,-0.91042,-0.82891,6.20E-03,-1.16E+06,1.18E+06,-6.09E+05,1.18E+06,-1.16E+06,4.53E+05,0,1.05E-02,8.94E-08,5.53E-04,0,1.05E-02,0,6.06E+08,33378,1.17E+08,0,6.06E+08,-3.44E-06,5.03E-10,-0.95996,6.20E-03,-1.16E+06,1.18E+06,0,1.05E-02,0,6.06E+08
29,1,3.59E-06,-3.56E-06,1.08E-09,-3.56E-06,-3.43E-06,-1.93E-06,1.08E-09,-0.95543,-0.90836,-0.83436,6.31E-03,-5.92E+05,7.83E+05,-5.92E+05,7.83E+05,-5.89E+05,7.08E+05,0,1.10E-02,1.03E-07,5.81E-04,0,1.10E-02,0,6.33E+08,43705,1.23E+08,0,6.33E+08,-3.56E-06,1.08E-09,-0.95543,6.31E-03,-5.92E+05,7.83E+05,0,1.10E-02,0,6.33E+08
30,1,3.72E-06,-3.68E-06,1.16E-09,-3.68E-06,-3.55E-06,-2.04E-06,1.16E-09,-0.95004,-0.91195,-0.85205,4.61E-03,-7.10E+05,8.69E+05,-7.10E+05,4.66E+05,-4.90E+05,8.69E+05,0,1.14E-02,7.16E-08,6.06E-04,0,1.14E-02,0,6.54E+08,29537,1.28E+08,0,6.54E+08,-3.68E-06,1.16E-09,-0.95004,4.61E-03,-7.10E+05,8.69E+05,0,1.14E-02,0,6.54E+08
31,1,3.85E-06,-3.80E-06,1.04E-09,-3.80E-06,-3.66E-06,-2.15E-06,1.04E-09,-0.94488,-0.9163,-0.87274,5.75E-03,-1.45E+06,2.14E+06,-6.55E+05,5.13E+05,-1.45E+06,2.14E+06,0,1.17E-02,8.72E-08,6.24E-04,0,1.17E-02,0,6.72E+08,32961,1.32E+08,0,6.72E+08,-3.80E-06,1.04E-09,-0.94488,5.75E-03,-1.45E+06,2.14E+06,0,1.17E-02,0,6.72E+08
32,1,3.98E-06,-3.92E-06,8.11E-10,-3.92E-06,-3.78E-06,-2.26E-06,8.11E-10,-0.93945,-0.91998,-0.8921,3.97E-02,-1.67E+06,1.02E+06,-7.84E+05,6.23E+05,-1.67E+06,1.02E+06,0,1.18E-02,1.06E-07,6.35E-04,0,1.18E-02,0,6.84E+08,42817,1.34E+08,0,6.84E+08,-3.92E-06,8.11E-10,-0.93945,3.97E-02,-1.67E+06,1.02E+06,0,1.18E-02,0,6.84E+08
33,1,4.11E-06,-4.04E-06,9.26E-10,-4.04E-06,-3.90E-06,-2.38E-06,9.26E-10,-0.93454,-0.92019,-0.89784,7.60E-02,-1.90E+06,2.04E+06,-4.27E+05,5.09E+05,-1.90E+06,2.04E+06,0,1.19E-02,1.06E-07,6.44E-04,0,1.19E-02,0,6.93E+08,41356,1.36E+08,0,6.93E+08,-4.04E-06,9.26E-10,-0.93454,7.60E-02,-1.90E+06,2.04E+06,0,1.19E-02,0,6.93E+08
34,1,4.23E-06,-4.16E-06,7.75E-10,-4.16E-06,-4.02E-06,-2.49E-06,7.75E-10,-0.92895,-0.91381,-0.89217,6.27E-02,-7.86E+05,1.02E+06,-2.64E+05,1.02E+06,-7.86E+05,9.07E+05,0,1.19E-02,1.03E-07,6.52E-04,0,1.19E-02,0,7.00E+08,43223,1.38E+08,0,7.00E+08,-4.16E-06,7.75E-10,-0.92895,6.27E-02,-7.86E+05,1.02E+06,0,1.19E-02,0,7.00E+08
35,1,4.36E-06,-4.28E-06,6.46E-10,-4.28E-06,-4.13E-06,-2.60E-06,6.46E-10,-0.92274,-0.90701,-0.88474,5.78E-02,-1.02E+06,7.14E+05,-4.33E+05,7.14E+05,-1.02E+06,4.82E+05,0,1.19E-02,1.18E-07,6.60E-04,0,1.19E-02,0,7.07E+08,50233,1.39E+08,0,7.07E+08,-4.28E-06,6.46E-10,-0.92274,5.78E-02,-1.02E+06,7.14E+05,0,1.19E-02,0,7.07E+08
36,1,4.49E-06,-4.40E-06,6.75E-10,-4.40E-06,-4.25E-06,-2.72E-06,6.75E-10,-0.9164,-0.89614,-0.86199,3.02E-02,-1.36E+06,8.06E+05,-3.78E+05,8.06E+05,-1.36E+06,3.57E+05,0,1.19E-02,1.27E-07,6.67E-04,0,1.19E-02,0,7.14E+08,52754,1.41E+08,0,7.14E+08,-4.40E-06,6.75E-10,-0.9164,3.02E-02,-1.36E+06,8.06E+05,0,1.19E-02,0,7.14E+08
37,1,4.62E-06,-4.52E-06,9.55E-10,-4.52E-06,-4.37E-06,-2.83E-06,9.55E-10,-0.91064,-0.89816,-0.87971,7.07E-03,-1.15E+06,7.14E+05,-7.02E+05,5.48E+05,-1.15E+06,7.14E+05,0,1.19E-02,7.83E-08,6.75E-04,0,1.19E-02,0,7.19E+08,32357,1.43E+08,0,7.19E+08,-4.52E-06,9.55E-10,-0.91064,7.07E-03,-1.15E+06,7.14E+05,0,1.19E-02,0,7.19E+08
38,1,4.75E-06,-4.63E-06,1.32E-09,-4.63E-06,-4.48E-06,-2.94E-06,1.32E-09,-0.9049,-0.89283,-0.87288,3.98E-03,-1.15E+06,5.12E+05,-3.40E+05,3.29E+05,-1.15E+06,5.12E+05,0,1.19E-02,7.86E-08,6.82E-04,0,1.19E-02,0,7.24E+08,33837,1.44E+08,0,7.24E+08,-4.63E-06,1.32E-09,-0.9049,3.98E-03,-1.15E+06,5.12E+05,0,1.19E-02,0,7.24E+08
39,1,4.88E-06,-4.75E-06,1.27E-09,-4.75E-06,-4.60E-06,-3.05E-06,1.27E-09,-0.89891,-0.88143,-0.86847,1.63E-02,-8.97E+05,6.49E+05,-8.97E+05,4.88E+05,-5.75E+05,6.49E+05,0,1.19E-02,6.23E-08,6.89E-04,0,1.19E-02,0,7.30E+08,22762,1.46E+08,0,7.30E+08,-4.75E-06,1.27E-09,-0.89891,1.63E-02,-8.97E+05,6.49E+05,0,1.19E-02,0,7.30E+08
40,1,5.00E-06,-4.86E-06,9.38E-10,-4.86E-06,-4.71E-06,-3.16E-06,9.38E-10,-0.8931,-0.87578,-0.84244,4.23E-02,-1.32E+06,2.88E+06,-3.04E+05,7.58E+05,-1.32E+06,2.88E+06,0,1.20E-02,9.58E-08,6.97E-04,0,1.20E-02,0,7.35E+08,35727,1.47E+08,0,7.35E+08,-4.86E-06,9.38E-10,-0.8931,4.23E-02,-1.32E+06,2.88E+06,0,1.20E-02,0,7.35E+08
41,1,5.13E-06,-4.98E-06,8.32E-10,-4.98E-06,-4.82E-06,-3.27E-06,8.32E-10,-0.88753,-0.87544,-0.86217,6.41E-02,-1.41E+06,8.59E+05,-5.04E+05,7.92E+05,-1.41E+06,8.59E+05,0,1.20E-02,1.35E-07,7.05E-04,0,1.20E-02,0,7.40E+08,56997,1.49E+08,0,7.40E+08,-4.98E-06,8.32E-10,-0.88753,6.41E-02,-1.41E+06,8.59E+05,0,1.20E-02,0,7.40E+08
42,1,5.26E-06,-5.09E-06,6.79E-10,-5.09E-06,-4.93E-06,-3.38E-06,6.79E-10,-0.88155,-0.86449,-0.82631,5.72E-02,-1.84E+06,4.66E+06,-7.04E+05,9.29E+05,-1.84E+06,4.66E+06,0,1.20E-02,1.28E-07,7.12E-04,0,1.20E-02,0,7.45E+08,55839,1.50E+08,0,7.45E+08,-5.09E-06,6.79E-10,-0.88155,5.72E-02,-1.84E+06,4.66E+06,0,1.20E-02,0,7.45E+08
43,1,5.39E-06,-5.20E-06,6.08E-10,-5.20E-06,-5.04E-06,-3.49E-06,6.08E-10,-0.87517,-0.86084,-0.84339,3.79E-02,-1.78E+06,1.02E+06,-6.97E+05,6.39E+05,-1.78E+06,1.02E+06,0,1.20E-02,1.10E-07,7.20E-04,0,1.20E-02,0,7.49E+08,47341,1.52E+08,0,7.49E+08,-5.20E-06,6.08E-10,-0.87517,3.79E-02,-1.78E+06,1.02E+06,0,1.20E-02,0,7.49E+08
44,1,5.52E-06,-5.32E-06,7.84E-10,-5.32E-06,-5.15E-06,-3.60E-06,7.84E-10,-0.86848,-0.85632,-0.83898,2.68E-02,-9.76E+05,8.82E+05,-5.30E+05,3.86E+05,-9.76E+05,8.82E+05,0,1.21E-02,1.22E-07,7.27E-04,0,1.21E-02,0,7.53E+08,51630,1.54E+08,0,7.53E+08,-5.32E-06,7.84E-10,-0.86848,2.68E-02,-9.76E+05,8.82E+05,0,1.21E-02,0,7.53E+08
45,1,5.65E-06,-5.43E-06,1.11E-09,-5.43E-06,-5.26E-06,-3.71E-06,1.11E-09,-0.86216,-0.84946,-0.83198,1.57E-02,-1.12E+06,1.32E+06,-2.52E+05,4.15E+05,-1.12E+06,1.32E+06,0,1.21E-02,1.17E-07,7.33E-04,0,1.21E-02,0,7.57E+08,48413,1.55E+08,0,7.57E+08,-5.43E-06,1.11E-09,-0.86216,1.57E-02,-1.12E+06,1.32E+06,0,1.21E-02,0,7.57E+08
46,1,5.78E-06,-5.54E-06,1.33E-09,-5.54E-06,-5.37E-06,-3.81E-06,1.33E-09,-0.85669,-0.74377,-0.98231,1.03E-02,-3.15E+07,1.95E+07,-4.85E+06,1.95E+07,-3.15E+07,1.08E+06,0,1.21E-02,1.13E-07,7.40E-04,0,1.21E-02,0,7.60E+08,48082,1.56E+08,0,7.60E+08,-5.54E-06,1.33E-09,-0.98231,1.03E-02,-3.15E+07,1.95E+07,0,1.21E-02,0,7.60E+08
47,1,5.90E-06,-5.65E-06,1.17E-09,-5.65E-06,-5.48E-06,-3.92E-06,1.17E-09,-0.85492,-0.75298,-0.82292,3.83E-03,-8.82E+06,5.15E+06,-8.82E+06,2.44E+06,-7.63E+06,5.15E+06,0,1.21E-02,9.31E-08,7.31E-04,0,1.21E-02,0,7.67E+08,34479,1.55E+08,0,7.67E+08,-5.65E-06,1.17E-09,-0.85492,3.83E-03,-8.82E+06,5.15E+06,0,1.21E-02,0,7.67E+08
48,1,6.03E-06,-5.76E-06,8.72E-10,-5.76E-06,-5.58E-06,-4.03E-06,8.72E-10,-0.84264,-0.75392,-0.83294,7.53E-03,-3.02E+06,5.14E+06,-3.02E+06,5.14E+06,-3.02E+06,3.61E+06,0,1.21E-02,1.02E-07,7.21E-04,0,1.21E-02,0,7.73E+08,40015,1.62E+08,0,7.73E+08,-5.76E-06,8.72E-10,-0.84264,7.53E-03,-3.02E+06,5.14E+06,0,1.21E-02,0,7.73E+08
49,1,6.16E-06,-5.86E-06,6.79E-10,-5.86E-06,-5.67E-06,-4.14E-06,6.79E-10,-0.83605,-0.75349,-0.83502,5.39E-03,-2.81E+06,3.26E+06,-2.27E+06,1.54E+06,-2.81E+06,3.26E+06,0,1.21E-02,1.35E-07,7.16E-04,0,1.21E-02,0,7.79E+08,54778,1.71E+08,0,7.79E+08,-5.86E-06,6.79E-10,-0.83605,5.39E-03,-2.81E+06,3.26E+06,0,1.21E-02,0,7.79E+08
50,1,6.29E-06,-5.97E-06,1.04E-09,-5.97E-06,-5.77E-06,-4.24E-06,1.04E-09,-0.82961,-0.7385,-0.82528,3.99E-03,-2.84E+06,2.76E+06,-1.51E+06,1.54E+06,-2.84E+06,2.76E+06,0,1.21E-02,1.53E-07,7.13E-04,0,1.21E-02,0,7.84E+08,62887,1.80E+08,0,7.84E+08,-5.97E-06,1.04E-09,-0.82961,3.99E-03,-2.84E+06,2.76E+06,0,1.21E-02,0,7.84E+08
51,1,6.42E-06,-6.08E-06,1.24E-09,-6.08E-06,-5.86E-06,-4.35E-06,1.24E-09,-0.82177,-0.73214,-0.81882,5.16E-03,-1.62E+06,1.87E+06,-1.08E+06,1.02E+06,-1.62E+06,1.87E+06,0,1.21E-02,1.36E-07,7.38E-04,0,1.21E-02,0,7.89E+08,56688,1.90E+08,0,7.89E+08,-6.08E-06,1.24E-09,-0.82177,5.16E-03,-1.62E+06,1.87E+06,0,1.21E-02,0,7.89E+08
52,1,6.55E-06,-6.18E-06,1.35E-09,-6.18E-06,-5.96E-06,-4.45E-06,1.35E-09,-0.81407,-0.72834,-0.80672,1.35E-02,-1.79E+06,1.44E+06,-1.29E+06,1.44E+06,-1.79E+06,1.01E+06,0,1.21E-02,1.42E-07,7.69E-04,0,1.21E-02,0,7.94E+08,57669,1.99E+08,0,7.94E+08,-6.18E-06,1.35E-09,-0.81407,1.35E-02,-1.79E+06,1.44E+06,0,1.21E-02,0,7.94E+08
53,1,6.67E-06,-6.28E-06,1.38E-09,-6.28E-06,-6.05E-06,-4.56E-06,1.38E-09,-0.80548,-0.71824,-0.80273,6.23E-03,-1.03E+06,1.37E+06,-8.03E+05,9.93E+05,-1.03E+06,1.37E+06,0,1.21E-02,1.75E-07,8.01E-04,0,1.21E-02,0,7.99E+08,68887,2.09E+08,0,7.99E+08,-6.28E-06,1.38E-09,-0.80548,6.23E-03,-1.03E+06,1.37E+06,0,1.21E-02,0,7.99E+08
54,1,6.80E-06,-6.39E-06,1.30E-09,-6.39E-06,-6.14E-06,-4.66E-06,1.30E-09,-0.7968,-0.711,-0.79432,1.09E-02,-1.55E+06,2.09E+06,-7.51E+05,8.41E+05,-1.55E+06,2.09E+06,0,1.21E-02,1.48E-07,8.37E-04,0,1.21E-02,0,8.04E+08,64281,2.19E+08,0,8.04E+08,-6.39E-06,1.30E-09,-0.7968,1.09E-02,-1.55E+06,2.09E+06,0,1.21E-02,0,8.04E+08
55,1,6.93E-06,-6.49E-06,1.23E-09,-6.49E-06,-6.23E-06,-4.76E-06,1.23E-09,-0.78775,-0.69997,-0.78615,1.00E-02,-2.06E+06,7.49E+05,-7.24E+05,7.49E+05,-2.06E+06,6.22E+05,0,1.21E-02,1.25E-07,8.73E-04,0,1.21E-02,0,8.09E+08,53459,2.29E+08,0,8.09E+08,-6.49E-06,1.23E-09,-0.78775,1.00E-02,-2.06E+06,7.49E+05,0,1.21E-02,0,8.09E+08
56,1,7.06E-06,-6.59E-06,1.39E-09,-6.59E-06,-6.32E-06,-4.86E-06,1.39E-09,-0.77857,-0.69604,-0.77677,7.99E-03,-1.45E+06,1.03E+06,-8.27E+05,9.85E+05,-1.45E+06,1.03E+06,0,1.21E-02,1.25E-07,9.09E-04,0,1.21E-02,0,8.13E+08,51427,2.39E+08,0,8.13E+08,-6.59E-06,1.39E-09,-0.77857,7.99E-03,-1.45E+06,1.03E+06,0,1.21E-02,0,8.13E+08
57,1,7.19E-06,-6.69E-06,1.56E-09,-6.69E-06,-6.41E-06,-4.96E-06,1.56E-09,-0.76965,-0.68882,-0.76554,6.41E-03,-7.16E+05,1.45E+06,-6.05E+05,1.00E+06,-7.16E+05,1.45E+06,0,1.22E-02,1.43E-07,9.45E-04,0,1.22E-02,0,8.17E+08,53172,2.48E+08,0,8.17E+08,-6.69E-06,1.56E-09,-0.76965,6.41E-03,-7.16E+05,1.45E+06,0,1.22E-02,0,8.17E+08
58,1,7.32E-06,-6.79E-06,1.52E-09,-6.79E-06,-6.50E-06,-5.06E-06,1.52E-09,-0.7605,-0.67629,-0.75659,8.60E-03,-1.25E+06,7.52E+05,-8.59E+05,5.99E+05,-1.25E+06,7.52E+05,0,1.22E-02,1.72E-07,9.81E-04,0,1.22E-02,0,8.21E+08,66569,2.58E+08,0,8.21E+08,-6.79E-06,1.52E-09,-0.7605,8.60E-03,-1.25E+06,7.52E+05,0,1.22E-02,0,8.21E+08
59,1,7.44E-06,-6.88E-06,1.35E-09,-6.88E-06,-6.58E-06,-5.15E-06,1.35E-09,-0.75184,-0.66937,-0.74402,4.66E-03,-7.50E+05,1.27E+06,-4.53E+05,6.29E+05,-7.50E+05,1.27E+06,0,1.22E-02,1.79E-07,1.02E-03,0,1.22E-02,0,8.25E+08,74971,2.67E+08,0,8.25E+08,-6.88E-06,1.35E-09,-0.75184,4.66E-03,-7.50E+05,1.27E+06,0,1.22E-02,0,8.25E+08
60,1,7.57E-06,-6.98E-06,1.62E-09,-6.98E-06,-6.67E-06,-5.25E-06,1.62E-09,-0.74225,-0.65879,-0.7346,7.88E-03,-4.84E+05,8.89E+05,-3.41E+05,4.16E+05,-4.84E+05,8.89E+05,0,1.22E-02,1.79E-07,1.05E-03,0,1.22E-02,0,8.28E+08,74668,2.77E+08,0,8.28E+08,-6.98E-06,1.62E-09,-0.74225,7.88E-03,-4.84E+05,8.89E+05,0,1.22E-02,0,8.28E+08
61,1,7.70E-06,-7.07E-06,1.70E-09,-7.07E-06,-6.75E-06,-5.34E-06,1.70E-09,-0.73147,-0.64835,-0.72339,8.09E-03,-5.42E+05,7.33E+05,-2.59E+05,5.06E+05,-5.42E+05,7.33E+05,0,1.22E-02,1.84E-07,1.09E-03,0,1.22E-02,0,8.32E+08,76126,2.86E+08,0,8.32E+08,-7.07E-06,1.70E-09,-0.73147,8.09E-03,-5.42E+05,7.33E+05,0,1.22E-02,0,8.32E+08
62,1,7.83E-06,-7.17E-06,1.65E-09,-7.17E-06,-6.84E-06,-5.43E-06,1.65E-09,-0.72082,-0.63675,-0.71407,7.29E-03,-6.35E+05,6.73E+05,-2.36E+05,5.03E+05,-6.35E+05,6.73E+05,0,1.22E-02,2.00E-07,1.13E-03,0,1.22E-02,0,8.35E+08,85154,2.96E+08,0,8.35E+08,-7.17E-06,1.65E-09,-0.72082,7.29E-03,-6.35E+05,6.73E+05,0,1.22E-02,0,8.35E+08
63,1,7.96E-06,-7.26E-06,1.51E-09,-7.26E-06,-6.92E-06,-5.52E-06,1.51E-09,-0.7104,-0.63107,-0.70477,8.71E-03,-8.57E+05,5.59E+05,-2.02E+05,5.59E+05,-8.57E+05,3.84E+05,0,1.22E-02,1.94E-07,1.17E-03,0,1.22E-02,0,8.39E+08,84203,3.05E+08,0,8.39E+08,-7.26E-06,1.51E-09,-0.7104,8.71E-03,-8.57E+05,5.59E+05,0,1.22E-02,0,8.39E+08
64,1,8.09E-06,-7.35E-06,1.82E-09,-7.35E-06,-7.00E-06,-5.61E-06,1.82E-09,-0.69926,-0.62219,-0.69059,4.98E-03,-5.58E+05,5.04E+05,-2.34E+05,5.04E+05,-5.58E+05,3.94E+05,0,1.22E-02,1.94E-07,1.21E-03,0,1.22E-02,0,8.41E+08,76202,3.14E+08,0,8.41E+08,-7.35E-06,1.82E-09,-0.69926,4.98E-03,-5.58E+05,5.04E+05,0,1.22E-02,0,8.41E+08
65,1,8.21E-06,-7.44E-06,1.84E-09,-7.44E-06,-7.08E-06,-5.70E-06,1.84E-09,-0.6883,-0.6115,-0.67987,4.05E-03,-6.28E+05,5.56E+05,-3.29E+05,3.53E+05,-6.28E+05,5.56E+05,0,1.22E-02,1.54E-07,1.25E-03,0,1.22E-02,0,8.44E+08,61152,3.23E+08,0,8.44E+08,-7.44E-06,1.84E-09,-0.6883,4.05E-03,-6.28E+05,5.56E+05,0,1.22E-02,0,8.44E+08
66,1,8.34E-06,-7.53E-06,1.87E-09,-7.53E-06,-7.16E-06,-5.79E-06,1.87E-09,-0.67731,-0.60098,-0.66731,6.26E-03,-4.77E+05,5.43E+05,-1.51E+05,3.61E+05,-4.77E+05,5.43E+05,0,1.22E-02,2.13E-07,1.28E-03,0,1.22E-02,0,8.47E+08,85563,3.32E+08,0,8.47E+08,-7.53E-06,1.87E-09,-0.67731,6.26E-03,-4.77E+05,5.43E+05,0,1.22E-02,0,8.47E+08
67,1,8.47E-06,-7.61E-06,1.78E-09,-7.61E-06,-7.23E-06,-5.87E-06,1.78E-09,-0.66586,-0.58878,-0.65615,4.96E-03,-4.89E+05,5.11E+05,-1.15E+05,3.51E+05,-4.89E+05,5.11E+05,0,1.22E-02,2.11E-07,1.32E-03,0,1.22E-02,0,8.50E+08,86493,3.40E+08,0,8.50E+08,-7.61E-06,1.78E-09,-0.66586,4.96E-03,-4.89E+05,5.11E+05,0,1.22E-02,0,8.50E+08
68,1,8.60E-06,-7.70E-06,1.81E-09,-7.70E-06,-7.31E-06,-5.95E-06,1.81E-09,-0.65518,-0.57736,-0.64245,5.60E-03,-5.62E+05,5.62E+05,-66848,2.78E+05,-5.62E+05,5.62E+05,0,1.22E-02,1.93E-07,1.36E-03,0,1.22E-02,0,8.52E+08,74353,3.49E+08,0,8.52E+08,-7.70E-06,1.81E-09,-0.65518,5.60E-03,-5.62E+05,5.62E+05,0,1.22E-02,0,8.52E+08
69,1,8.73E-06,-7.78E-06,1.81E-09,-7.78E-06,-7.38E-06,-6.04E-06,1.81E-09,-0.6424,-0.56308,-0.63053,8.14E-03,-2.92E+05,8.06E+05,-53164,2.98E+05,-2.92E+05,8.06E+05,0,1.22E-02,1.91E-07,1.39E-03,0,1.22E-02,0,8.54E+08,75803,3.57E+08,0,8.54E+08,-7.78E-06,1.81E-09,-0.6424,8.14E-03,-2.92E+05,8.06E+05,0,1.22E-02,0,8.54E+08
70,1,8.86E-06,-7.86E-06,1.82E-09,-7.86E-06,-7.45E-06,-6.12E-06,1.82E-09,-0.63112,-0.55254,-0.61893,1.07E-02,-4.21E+05,3.63E+05,-1.69E+05,2.23E+05,-4.21E+05,3.63E+05,0,1.22E-02,2.36E-07,1.43E-03,0,1.22E-02,0,8.57E+08,1.02E+05,3.66E+08,0,8.57E+08,-7.86E-06,1.82E-09,-0.63112,1.07E-02,-4.21E+05,3.63E+05,0,1.22E-02,0,8.57E+08
71,1,8.98E-06,-7.94E-06,1.73E-09,-7.94E-06,-7.52E-06,-6.19E-06,1.73E-09,-0.61893,-0.54411,-0.60582,7.21E-03,-5.08E+05,3.68E+05,-44957,3.68E+05,-5.08E+05,3.42E+05,0,1.22E-02,2.26E-07,1.47E-03,0,1.22E-02,0,8.59E+08,93360,3.74E+08,0,8.59E+08,-7.94E-06,1.73E-09,-0.61893,7.21E-03,-5.08E+05,3.68E+05,0,1.22E-02,0,8.59E+08
72,1,9.11E-06,-8.02E-06,1.94E-09,-8.02E-06,-7.59E-06,-6.27E-06,1.94E-09,-0.60622,-0.5332,-0.59144,5.09E-03,-4.78E+05,3.76E+05,-1.14E+05,2.40E+05,-4.78E+05,3.76E+05,0,1.22E-02,1.96E-07,1.50E-03,0,1.22E-02,0,8.61E+08,78580,3.82E+08,0,8.61E+08,-8.02E-06,1.94E-09,-0.60622,5.09E-03,-4.78E+05,3.76E+05,0,1.22E-02,0,8.61E+08
73,1,9.24E-06,-8.10E-06,2.10E-09,-8.10E-06,-7.66E-06,-6.35E-06,2.10E-09,-0.59281,-0.52047,-0.57863,4.29E-03,-2.87E+05,6.45E+05,-13376,2.01E+05,-2.87E+05,6.45E+05,0,1.23E-02,1.93E-07,1.53E-03,0,1.23E-02,0,8.63E+08,81984,3.89E+08,0,8.63E+08,-8.10E-06,2.10E-09,-0.59281,4.29E-03,-2.87E+05,6.45E+05,0,1.23E-02,0,8.63E+08
74,1,9.37E-06,-8.17E-06,2.15E-09,-8.17E-06,-7.72E-06,-6.42E-06,2.15E-09,-0.5798,-0.50895,-0.5654,5.11E-03,-4.09E+05,4.71E+05,9048.6,1.99E+05,-4.09E+05,4.71E+05,0,1.23E-02,2.07E-07,1.57E-03,0,1.23E-02,0,8.65E+08,81293,3.97E+08,0,8.65E+08,-8.17E-06,2.15E-09,-0.5798,5.11E-03,-4.09E+05,4.71E+05,0,1.23E-02,0,8.65E+08
75,1,9.50E-06,-8.25E-06,1.94E-09,-8.25E-06,-7.79E-06,-6.49E-06,1.94E-09,-0.567,-0.49516,-0.55031,5.49E-03,-3.20E+05,4.20E+05,898.41,2.13E+05,-3.20E+05,4.20E+05,0,1.23E-02,2.39E-07,1.60E-03,0,1.23E-02,0,8.67E+08,94537,4.04E+08,0,8.67E+08,-8.25E-06,1.94E-09,-0.567,5.49E-03,-3.20E+05,4.20E+05,0,1.23E-02,0,8.67E+08
76,1,9.63E-06,-8.32E-06,1.92E-09,-8.32E-06,-7.85E-06,-6.56E-06,1.92E-09,-0.5547,-0.48128,-0.53539,5.54E-03,-3.52E+05,3.94E+05,-16428,2.20E+05,-3.52E+05,3.94E+05,0,1.23E-02,2.27E-07,1.63E-03,0,1.23E-02,0,8.68E+08,93537,4.11E+08,0,8.68E+08,-8.32E-06,1.92E-09,-0.5547,5.54E-03,-3.52E+05,3.94E+05,0,1.23E-02,0,8.68E+08
77,1,9.76E-06,-8.39E-06,1.88E-09,-8.39E-06,-7.91E-06,-6.63E-06,1.88E-09,-0.54148,-0.46851,-0.52282,7.52E-03,-2.97E+05,3.65E+05,-49475,1.81E+05,-2.97E+05,3.65E+05,0,1.23E-02,2.07E-07,1.66E-03,0,1.23E-02,0,8.70E+08,83308,4.18E+08,0,8.70E+08,-8.39E-06,1.88E-09,-0.54148,7.52E-03,-2.97E+05,3.65E+05,0,1.23E-02,0,8.70E+08
78,1,9.88E-06,-8.46E-06,1.87E-09,-8.46E-06,-7.97E-06,-6.70E-06,1.87E-09,-0.52765,-0.45557,-0.50774,7.40E-03,-3.71E+05,1.99E+05,20143,1.99E+05,-3.71E+05,1.81E+05,0,1.23E-02,2.43E-07,1.70E-03,0,1.23E-02,0,8.72E+08,94088,4.26E+08,0,8.72E+08,-8.46E-06,1.87E-09,-0.52765,7.40E-03,-3.71E+05,1.99E+05,0,1.23E-02,0,8.72E+08
79,1,1.00E-05,-8.52E-06,2.09E-09,-8.52E-06,-8.03E-06,-6.76E-06,2.09E-09,-0.51343,-0.44427,-0.49485,6.41E-03,-4.29E+05,3.02E+05,4685,2.00E+05,-4.29E+05,3.02E+05,0,1.23E-02,2.68E-07,1.73E-03,0,1.23E-02,0,8.73E+08,1.17E+05,4.32E+08,0,8.73E+08,-8.52E-06,2.09E-09,-0.51343,6.41E-03,-4.29E+05,3.02E+05,0,1.23E-02,0,8.73E+08
80,1,1.01E-05,-8.59E-06,2.30E-09,-8.59E-06,-8.09E-06,-6.82E-06,2.30E-09,-0.49962,-0.43154,-0.4787,4.90E-03,-3.29E+05,3.08E+05,64310,1.71E+05,-3.29E+05,3.08E+05,0,1.23E-02,2.79E-07,1.75E-03,0,1.23E-02,0,8.74E+08,1.21E+05,4.39E+08,0,8.74E+08,-8.59E-06,2.30E-09,-0.49962,4.90E-03,-3.29E+05,3.08E+05,0,1.23E-02,0,8.74E+08
81,1,1.03E-05,-8.65E-06,2.39E-09,-8.65E-06,-8.14E-06,-6.88E-06,2.39E-09,-0.48603,-0.41892,-0.46494,3.44E-03,-2.18E+05,2.65E+05,33273,1.52E+05,-2.18E+05,2.65E+05,0,1.23E-02,2.71E-07,1.78E-03,0,1.23E-02,0,8.76E+08,1.08E+05,4.45E+08,0,8.76E+08,-8.65E-06,2.39E-09,-0.48603,3.44E-03,-2.18E+05,2.65E+05,0,1.23E-02,0,8.76E+08
82,1,1.04E-05,-8.71E-06,2.20E-09,-8.71E-06,-8.19E-06,-6.94E-06,2.20E-09,-0.47149,-0.4045,-0.44973,4.96E-03,-2.83E+05,3.15E+05,56467,1.72E+05,-2.83E+05,3.15E+05,0,1.23E-02,2.30E-07,1.81E-03,0,1.23E-02,0,8.77E+08,91185,4.51E+08,0,8.77E+08,-8.71E-06,2.20E-09,-0.47149,4.96E-03,-2.83E+05,3.15E+05,0,1.23E-02,0,8.77E+08
83,1,1.05E-05,-8.77E-06,2.15E-09,-8.77E-06,-8.24E-06,-7.00E-06,2.15E-09,-0.45712,-0.39053,-0.43425,3.69E-03,-1.60E+05,2.91E+05,63326,1.75E+05,-1.60E+05,2.91E+05,0,1.23E-02,2.46E-07,1.84E-03,0,1.23E-02,0,8.78E+08,97044,4.57E+08,0,8.78E+08,-8.77E-06,2.15E-09,-0.45712,3.69E-03,-1.60E+05,2.91E+05,0,1.23E-02,0,8.78E+08
84,1,1.07E-05,-8.83E-06,2.08E-09,-8.83E-06,-8.29E-06,-7.05E-06,2.08E-09,-0.44198,-0.376,-0.41752,4.44E-03,-1.51E+05,1.93E+05,22078,1.54E+05,-1.51E+05,1.93E+05,0,1.23E-02,2.64E-07,1.86E-03,0,1.23E-02,0,8.79E+08,1.04E+05,4.62E+08,0,8.79E+08,-8.83E-06,2.08E-09,-0.44198,4.44E-03,-1.51E+05,1.93E+05,0,1.23E-02,0,8.79E+08
85,1,1.08E-05,-8.89E-06,2.04E-09,-8.89E-06,-8.34E-06,-7.10E-06,2.04E-09,-0.42774,-0.33355,-0.36423,7.07E-03,-2.46E+06,2.72E+06,-2.46E+06,2.72E+06,-1.40E+06,1.83E+06,0,1.23E-02,2.66E-07,1.88E-03,0,1.23E-02,0,8.82E+08,1.05E+05,4.68E+08,0,8.82E+08,-8.89E-06,2.04E-09,-0.42774,7.07E-03,-2.46E+06,2.72E+06,0,1.23E-02,0,8.82E+08
86,1,1.09E-05,-8.94E-06,2.00E-09,-8.94E-06,-8.39E-06,-7.15E-06,2.00E-09,-0.41282,-0.33703,-0.36069,7.35E-03,-1.82E+06,2.33E+06,-1.82E+06,2.33E+06,-1.38E+06,7.88E+05,0,1.23E-02,2.39E-07,1.90E-03,0,1.23E-02,0,8.84E+08,93687,4.74E+08,0,8.84E+08,-8.94E-06,2.00E-09,-0.41282,7.35E-03,-1.82E+06,2.33E+06,0,1.23E-02,0,8.84E+08
87,1,1.10E-05,-8.99E-06,2.29E-09,-8.99E-06,-8.43E-06,-7.20E-06,2.29E-09,-0.39801,-0.3293,-0.35389,5.40E-03,-1.22E+06,1.87E+06,-1.22E+06,1.87E+06,-9.44E+05,5.86E+05,0,1.23E-02,2.85E-07,1.92E-03,0,1.23E-02,0,8.87E+08,1.12E+05,4.79E+08,0,8.87E+08,-8.99E-06,2.29E-09,-0.39801,5.40E-03,-1.22E+06,1.87E+06,0,1.23E-02,0,8.87E+08
88,1,1.12E-05,-9.04E-06,2.58E-09,-9.04E-06,-8.47E-06,-7.24E-06,2.58E-09,-0.38277,-0.31343,-0.33447,5.68E-03,-1.12E+06,1.02E+06,-1.12E+06,1.02E+06,-5.08E+05,8.53E+05,0,1.23E-02,2.91E-07,1.93E-03,0,1.23E-02,0,8.89E+08,1.26E+05,4.85E+08,0,8.89E+08,-9.04E-06,2.58E-09,-0.38277,5.68E-03,-1.12E+06,1.02E+06,0,1.23E-02,0,8.89E+08
89,1,1.13E-05,-9.09E-06,2.77E-09,-9.09E-06,-8.51E-06,-7.29E-06,2.77E-09,-0.36717,-0.29988,-0.32249,4.32E-03,-6.68E+05,8.21E+05,-6.48E+05,8.21E+05,-6.68E+05,6.74E+05,0,1.23E-02,2.71E-07,1.95E-03,0,1.23E-02,0,8.92E+08,1.18E+05,4.89E+08,0,8.92E+08,-9.09E-06,2.77E-09,-0.36717,4.32E-03,-6.68E+05,8.21E+05,0,1.23E-02,0,8.92E+08
90,1,1.14E-05,-9.14E-06,2.67E-09,-9.14E-06,-8.55E-06,-7.33E-06,2.67E-09,-0.35114,-0.28735,-0.30552,6.18E-03,-6.45E+05,1.15E+06,-6.45E+05,1.04E+06,-4.62E+05,1.15E+06,0,1.23E-02,2.89E-07,1.96E-03,0,1.23E-02,0,8.94E+08,1.10E+05,4.94E+08,0,8.94E+08,-9.14E-06,2.67E-09,-0.35114,6.18E-03,-6.45E+05,1.15E+06,0,1.23E-02,0,8.94E+08
91,1,1.16E-05,-9.18E-06,2.37E-09,-9.18E-06,-8.58E-06,-7.36E-06,2.37E-09,-0.33535,-0.26963,-0.29186,5.42E-03,-6.39E+05,8.48E+05,-2.88E+05,7.33E+05,-6.39E+05,8.48E+05,0,1.23E-02,2.85E-07,1.97E-03,0,1.23E-02,0,8.96E+08,1.10E+05,4.98E+08,0,8.96E+08,-9.18E-06,2.37E-09,-0.33535,5.42E-03,-6.39E+05,8.48E+05,0,1.23E-02,0,8.96E+08
92,1,1.17E-05,-9.22E-06,2.05E-09,-9.22E-06,-8.62E-06,-7.40E-06,2.05E-09,-0.3187,-0.25613,-0.27436,5.86E-03,-5.51E+05,6.78E+05,-4.34E+05,6.78E+05,-5.51E+05,3.94E+05,0,1.23E-02,2.78E-07,1.99E-03,0,1.23E-02,0,8.98E+08,1.09E+05,5.02E+08,0,8.98E+08,-9.22E-06,2.05E-09,-0.3187,5.86E-03,-5.51E+05,6.78E+05,0,1.23E-02,0,8.98E+08
93,1,1.18E-05,-9.26E-06,2.11E-09,-9.26E-06,-8.65E-06,-7.43E-06,2.11E-09,-0.3024,-0.24089,-0.25821,4.46E-03,-5.81E+05,7.40E+05,-2.83E+05,7.40E+05,-5.81E+05,3.96E+05,0,1.23E-02,2.86E-07,2.00E-03,0,1.23E-02,0,9.01E+08,1.16E+05,5.06E+08,0,9.01E+08,-9.26E-06,2.11E-09,-0.3024,4.46E-03,-5.81E+05,7.40E+05,0,1.23E-02,0,9.01E+08
94,1,1.19E-05,-9.30E-06,2.33E-09,-9.30E-06,-8.68E-06,-7.47E-06,2.33E-09,-0.28571,-0.2235,-0.24115,4.76E-03,-4.34E+05,5.21E+05,-2.80E+05,5.21E+05,-4.34E+05,4.01E+05,0,1.23E-02,2.82E-07,2.01E-03,0,1.23E-02,0,9.03E+08,1.12E+05,5.09E+08,0,9.03E+08,-9.30E-06,2.33E-09,-0.28571,4.76E-03,-4.34E+05,5.21E+05,0,1.23E-02,0,9.03E+08
95,1,1.21E-05,-9.34E-06,2.70E-09,-9.34E-06,-8.71E-06,-7.50E-06,2.70E-09,-0.26865,-0.20533,-0.22472,5.81E-03,-2.53E+05,4.84E+05,-2.53E+05,4.84E+05,-2.39E+05,4.50E+05,0,1.23E-02,2.93E-07,2.02E-03,0,1.23E-02,0,9.05E+08,1.12E+05,5.12E+08,0,9.05E+08,-9.34E-06,2.70E-09,-0.26865,5.81E-03,-2.53E+05,4.84E+05,0,1.23E-02,0,9.05E+08
96,1,1.22E-05,-9.37E-06,2.67E-09,-9.37E-06,-8.73E-06,-7.52E-06,2.67E-09,-0.25243,-0.18706,-0.20746,5.38E-03,-2.81E+05,4.60E+05,-1.41E+05,3.89E+05,-2.81E+05,4.60E+05,0,1.23E-02,3.18E-07,2.03E-03,0,1.23E-02,0,9.06E+08,1.24E+05,5.15E+08,0,9.06E+08,-9.37E-06,2.67E-09,-0.25243,5.38E-03,-2.81E+05,4.60E+05,0,1.23E-02,0,9.06E+08
97,1,1.23E-05,-9.40E-06,2.75E-09,-9.40E-06,-8.76E-06,-7.55E-06,2.75E-09,-0.23599,-0.16901,-0.18978,6.47E-03,-2.35E+05,4.78E+05,-88225,4.78E+05,-2.35E+05,3.71E+05,0,1.23E-02,3.38E-07,2.03E-03,0,1.23E-02,0,9.08E+08,1.43E+05,5.18E+08,0,9.08E+08,-9.40E-06,2.75E-09,-0.23599,6.47E-03,-2.35E+05,4.78E+05,0,1.23E-02,0,9.08E+08
98,1,1.25E-05,-9.43E-06,2.75E-09,-9.43E-06,-8.78E-06,-7.57E-06,2.75E-09,-0.21976,-0.14973,-0.17343,8.94E-03,-3.34E+05,3.16E+05,-1.71E+05,3.16E+05,-3.34E+05,2.93E+05,0,1.23E-02,3.36E-07,2.04E-03,0,1.23E-02,0,9.10E+08,1.32E+05,5.21E+08,0,9.10E+08,-9.43E-06,2.75E-09,-0.21976,8.94E-03,-3.34E+05,3.16E+05,0,1.23E-02,0,9.10E+08
99,1,1.26E-05,-9.46E-06,2.52E-09,-9.46E-06,-8.80E-06,-7.59E-06,2.52E-09,-0.20243,-0.13109,-0.15767,6.03E-03,-3.08E+05,3.66E+05,-1.23E+05,3.66E+05,-3.08E+05,3.25E+05,0,1.23E-02,3.10E-07,2.05E-03,0,1.23E-02,0,9.11E+08,1.19E+05,5.23E+08,0,9.11E+08,-9.46E-06,2.52E-09,-0.20243,6.03E-03,-3.08E+05,3.66E+05,0,1.23E-02,0,9.11E+08
100,1,1.27E-05,-9.48E-06,2.21E-09,-9.48E-06,-8.82E-06,-7.61E-06,2.21E-09,-0.18468,-0.11174,-0.14099,4.25E-03,-3.03E+05,4.35E+05,4075.3,4.35E+05,-3.03E+05,2.94E+05,0,1.23E-02,3.10E-07,2.06E-03,0,1.23E-02,0,9.12E+08,1.20E+05,5.25E+08,0,9.12E+08,-9.48E-06,2.21E-09,-0.18468,4.25E-03,-3.03E+05,4.35E+05,0,1.23E-02,0,9.12E+08
101,1,1.28E-05,-9.50E-06,2.10E-09,-9.50E-06,-8.83E-06,-7.63E-06,2.10E-09,-0.16648,-9.26E-02,-0.12379,4.71E-03,-2.84E+05,3.09E+05,1386.7,3.09E+05,-2.84E+05,2.57E+05,0,1.23E-02,3.21E-07,2.06E-03,0,1.23E-02,0,9.13E+08,1.28E+05,5.27E+08,0,9.13E+08,-9.50E-06,2.10E-09,-0.16648,4.71E-03,-2.84E+05,3.09E+05,0,1.23E-02,0,9.13E+08
102,1,1.30E-05,-9.52E-06,2.55E-09,-9.52E-06,-8.85E-06,-7.65E-06,2.55E-09,-0.14883,-7.37E-02,-0.10528,5.98E-03,-2.20E+05,3.63E+05,-14547,2.67E+05,-2.20E+05,3.63E+05,0,1.23E-02,3.01E-07,2.06E-03,0,1.23E-02,0,9.14E+08,1.22E+05,5.28E+08,0,9.14E+08,-9.52E-06,2.55E-09,-0.14883,5.98E-03,-2.20E+05,3.63E+05,0,1.23E-02,0,9.14E+08
103,1,1.31E-05,-9.54E-06,2.91E-09,-9.54E-06,-8.86E-06,-7.66E-06,2.91E-09,-0.13181,-5.46E-02,-8.84E-02,6.85E-03,-1.02E+05,3.88E+05,-17605,2.85E+05,-1.02E+05,3.88E+05,0,1.23E-02,2.95E-07,2.07E-03,0,1.23E-02,0,9.15E+08,1.13E+05,5.29E+08,0,9.15E+08,-9.54E-06,2.91E-09,-0.13181,6.85E-03,-1.02E+05,3.88E+05,0,1.23E-02,0,9.15E+08
104,1,1.32E-05,-9.56E-06,2.98E-09,-9.56E-06,-8.87E-06,-7.67E-06,2.98E-09,-0.11466,-3.52E-02,-6.90E-02,1.32E-02,-1.42E+05,4.44E+05,-21965,4.44E+05,-1.42E+05,3.63E+05,0,1.23E-02,3.08E-07,2.07E-03,0,1.23E-02,0,9.15E+08,1.17E+05,5.30E+08,0,9.15E+08,-9.56E-06,2.98E-09,-0.11466,1.32E-02,-1.42E+05,4.44E+05,0,1.23E-02,0,9.15E+08
105,1,1.34E-05,-9.57E-06,2.74E-09,-9.57E-06,-8.88E-06,-7.68E-06,2.74E-09,-9.79E-02,-1.65E-02,-5.24E-02,1.96E-02,-3.11E+05,2.71E+05,15810,2.71E+05,-3.11E+05,2.55E+05,0,1.23E-02,3.06E-07,2.07E-03,0,1.23E-02,0,9.16E+08,1.32E+05,5.32E+08,0,9.16E+08,-9.57E-06,2.74E-09,-9.79E-02,1.96E-02,-3.11E+05,2.71E+05,0,1.23E-02,0,9.16E+08
106,1,1.35E-05,-9.58E-06,2.55E-09,-9.58E-06,-8.88E-06,-7.68E-06,2.55E-09,-8.05E-02,2.50E-03,-3.52E-02,1.39E-02,-3.70E+05,2.76E+05,12728,2.76E+05,-3.70E+05,1.51E+05,0,1.23E-02,3.17E-07,2.08E-03,0,1.23E-02,0,9.16E+08,1.37E+05,5.32E+08,0,9.16E+08,-9.58E-06,2.55E-09,-8.05E-02,1.39E-02,-3.70E+05,2.76E+05,0,1.23E-02,0,9.16E+08
107,1,1.36E-05,-9.59E-06,2.32E-09,-9.59E-06,-8.88E-06,-7.68E-06,2.32E-09,-6.28E-02,2.15E-02,-1.81E-02,3.86E-03,-2.68E+05,2.28E+05,40094,2.28E+05,-2.68E+05,1.79E+05,0,1.23E-02,3.27E-07,2.08E-03,0,1.23E-02,0,9.17E+08,1.36E+05,5.33E+08,0,9.17E+08,-9.59E-06,2.32E-09,-6.28E-02,2.15E-02,-2.68E+05,2.28E+05,0,1.23E-02,0,9.17E+08
108,1,1.37E-05,-9.60E-06,2.25E-09,-9.60E-06,-8.88E-06,-7.69E-06,2.25E-09,-4.51E-02,4.09E-02,-2.17E-02,3.54E-03,-2.33E+05,2.87E+05,20397,2.54E+05,-2.33E+05,2.87E+05,0,1.23E-02,3.30E-07,2.08E-03,0,1.23E-02,0,9.16E+08,1.29E+05,5.33E+08,0,9.16E+08,-9.60E-06,2.25E-09,-4.51E-02,4.09E-02,-2.33E+05,2.87E+05,0,1.23E-02,0,9.16E+08
109,1,1.39E-05,-9.60E-06,2.35E-09,-9.60E-06,-8.88E-06,-7.69E-06,2.35E-09,-2.72E-02,6.11E-02,-1.97E-02,1.34E-02,-1.50E+05,3.12E+05,44231,2.28E+05,-1.50E+05,3.12E+05,0,1.23E-02,3.09E-07,2.08E-03,0,1.23E-02,0,9.15E+08,1.25E+05,5.32E+08,0,9.15E+08,-9.60E-06,2.35E-09,-2.72E-02,6.11E-02,-1.50E+05,3.12E+05,0,1.23E-02,0,9.15E+08
110,1,1.40E-05,-9.61E-06,2.69E-09,-9.61E-06,-8.88E-06,-7.68E-06,2.69E-09,-8.77E-03,8.07E-02,-9.09E-03,3.17E-02,-68018,3.36E+05,52669,2.77E+05,-68018,3.36E+05,0,1.23E-02,2.96E-07,2.07E-03,0,1.23E-02,0,9.14E+08,1.19E+05,5.31E+08,0,9.14E+08,-9.61E-06,2.69E-09,-9.09E-03,8.07E-02,-68018,3.36E+05,0,1.23E-02,0,9.14E+08
111,1,1.41E-05,-9.61E-06,2.77E-09,-9.61E-06,-8.88E-06,-7.68E-06,2.77E-09,8.65E-03,0.10001,-3.84E-03,5.06E-02,-1.28E+05,4.18E+05,67590,2.15E+05,-1.28E+05,4.18E+05,0,1.23E-02,2.97E-07,2.07E-03,0,1.23E-02,0,9.13E+08,1.13E+05,5.31E+08,0,9.13E+08,-9.61E-06,2.77E-09,-3.84E-03,0.10001,-1.28E+05,4.18E+05,0,1.23E-02,0,9.13E+08
112,1,1.42E-05,-9.60E-06,2.81E-09,-9.60E-06,-8.87E-06,-7.67E-06,2.81E-09,2.62E-02,0.11853,-3.51E-03,6.81E-02,-1.33E+05,3.11E+05,79717,2.26E+05,-1.33E+05,3.11E+05,0,1.23E-02,3.12E-07,2.07E-03,0,1.23E-02,0,9.11E+08,1.21E+05,5.30E+08,0,9.11E+08,-9.60E-06,2.81E-09,-3.51E-03,0.11853,-1.33E+05,3.11E+05,0,1.23E-02,0,9.11E+08
113,1,1.44E-05,-9.60E-06,2.69E-09,-9.60E-06,-8.86E-06,-7.66E-06,2.69E-09,4.33E-02,0.13729,-4.02E-03,8.42E-02,-2.58E+05,2.36E+05,34733,2.36E+05,-2.58E+05,92758,0,1.23E-02,3.28E-07,2.07E-03,0,1.23E-02,0,9.10E+08,1.30E+05,5.29E+08,0,9.10E+08,-9.60E-06,2.69E-09,-4.02E-03,0.13729,-2.58E+05,2.36E+05,0,1.23E-02,0,9.10E+08
114,1,1.45E-05,-9.59E-06,2.53E-09,-9.59E-06,-8.85E-06,-7.65E-06,2.53E-09,5.99E-02,0.15631,-4.34E-03,9.79E-02,-3.96E+05,2.02E+05,34891,2.02E+05,-3.96E+05,1.10E+05,0,1.22E-02,3.28E-07,2.06E-03,0,1.22E-02,0,9.07E+08,1.35E+05,5.28E+08,0,9.07E+08,-9.59E-06,2.53E-09,-4.34E-03,0.15631,-3.96E+05,2.02E+05,0,1.22E-02,0,9.07E+08
115,1,1.46E-05,-9.58E-06,2.40E-09,-9.58E-06,-8.84E-06,-7.63E-06,2.40E-09,7.70E-02,0.17546,-1.57E-02,0.11184,-3.25E+05,1.92E+05,29088,1.92E+05,-3.25E+05,1.14E+05,0,1.22E-02,3.21E-07,2.05E-03,0,1.22E-02,0,9.02E+08,1.28E+05,5.25E+08,0,9.02E+08,-9.58E-06,2.40E-09,-1.57E-02,0.17546,-3.25E+05,1.92E+05,0,1.22E-02,0,9.02E+08
116,1,1.48E-05,-9.57E-06,2.30E-09,-9.57E-06,-8.82E-06,-7.62E-06,2.30E-09,9.41E-02,0.19431,-2.05E-02,0.12628,-1.45E+05,2.22E+05,73343,1.97E+05,-1.45E+05,2.22E+05,0,1.21E-02,3.33E-07,2.04E-03,0,1.21E-02,0,8.97E+08,1.31E+05,5.23E+08,0,8.97E+08,-9.57E-06,2.30E-09,-2.05E-02,0.19431,-1.45E+05,2.22E+05,0,1.21E-02,0,8.97E+08
117,1,1.49E-05,-9.56E-06,2.51E-09,-9.56E-06,-8.80E-06,-7.60E-06,2.51E-09,0.11174,0.21344,-7.56E-03,0.14415,-96272,3.00E+05,85601,2.04E+05,-96272,3.00E+05,0,1.20E-02,3.25E-07,2.04E-03,0,1.20E-02,0,8.91E+08,1.31E+05,5.20E+08,0,8.91E+08,-9.56E-06,2.51E-09,-7.56E-03,0.21344,-96272,3.00E+05,0,1.20E-02,0,8.91E+08
118,1,1.50E-05,-9.54E-06,2.77E-09,-9.54E-06,-8.79E-06,-7.58E-06,2.77E-09,0.12958,0.23228,-4.65E-03,0.16248,-83879,3.13E+05,77870,1.95E+05,-83879,3.13E+05,0,1.20E-02,3.01E-07,2.03E-03,0,1.20E-02,0,8.86E+08,1.21E+05,5.17E+08,0,8.86E+08,-9.54E-06,2.77E-09,-4.65E-03,0.23228,-83879,3.13E+05,0,1.20E-02,0,8.86E+08
119,1,1.51E-05,-9.53E-06,2.59E-09,-9.53E-06,-8.76E-06,-7.56E-06,2.59E-09,0.14675,0.25115,-4.61E-03,0.18082,-92961,2.82E+05,84184,2.32E+05,-92961,2.82E+05,0,1.19E-02,2.86E-07,2.02E-03,0,1.19E-02,0,8.80E+08,1.16E+05,5.14E+08,0,8.80E+08,-9.53E-06,2.59E-09,-4.61E-03,0.25115,-92961,2.82E+05,0,1.19E-02,0,8.80E+08
120,1,1.53E-05,-9.51E-06,2.33E-09,-9.51E-06,-8.74E-06,-7.54E-06,2.33E-09,0.16331,0.27001,-3.63E-03,0.19647,-2.65E+05,1.89E+05,79739,1.89E+05,-2.65E+05,1.35E+05,0,1.18E-02,2.78E-07,2.01E-03,0,1.18E-02,0,8.75E+08,1.08E+05,5.11E+08,0,8.75E+08,-9.51E-06,2.33E-09,-3.63E-03,0.27001,-2.65E+05,1.89E+05,0,1.18E-02,0,8.75E+08
121,1,1.54E-05,-9.48E-06,2.35E-09,-9.48E-06,-8.72E-06,-7.51E-06,2.35E-09,0.17955,0.28775,-3.72E-03,0.20997,-2.80E+05,1.77E+05,88511,1.77E+05,-2.80E+05,96814,0,1.18E-02,2.85E-07,2.00E-03,0,1.18E-02,0,8.68E+08,1.09E+05,5.08E+08,0,8.68E+08,-9.48E-06,2.35E-09,-3.72E-03,0.28775,-2.80E+05,1.77E+05,0,1.18E-02,0,8.68E+08
122,1,1.55E-05,-9.46E-06,2.42E-09,-9.46E-06,-8.69E-06,-7.48E-06,2.42E-09,0.19549,0.30547,-4.76E-03,0.223,-2.66E+05,1.84E+05,95183,1.84E+05,-2.66E+05,1.03E+05,0,1.17E-02,2.84E-07,1.98E-03,0,1.17E-02,0,8.60E+08,1.21E+05,5.04E+08,0,8.60E+08,-9.46E-06,2.42E-09,-4.76E-03,0.30547,-2.66E+05,1.84E+05,0,1.17E-02,0,8.60E+08
123,1,1.57E-05,-9.43E-06,2.41E-09,-9.43E-06,-8.66E-06,-7.45E-06,2.41E-09,0.21178,0.32285,-9.91E-03,0.23724,-1.38E+05,1.80E+05,80819,1.71E+05,-1.38E+05,1.80E+05,0,1.16E-02,2.76E-07,1.97E-03,0,1.16E-02,0,8.51E+08,1.18E+05,4.99E+08,0,8.51E+08,-9.43E-06,2.41E-09,-9.91E-03,0.32285,-1.38E+05,1.80E+05,0,1.16E-02,0,8.51E+08
124,1,1.58E-05,-9.41E-06,2.49E-09,-9.41E-06,-8.63E-06,-7.42E-06,2.49E-09,0.22784,0.34053,-5.86E-03,0.25323,-81364,3.41E+05,71901,1.79E+05,-81364,3.41E+05,0,1.14E-02,2.78E-07,1.95E-03,0,1.14E-02,0,8.41E+08,1.18E+05,4.94E+08,0,8.41E+08,-9.41E-06,2.49E-09,-5.86E-03,0.34053,-81364,3.41E+05,0,1.14E-02,0,8.41E+08
125,1,1.59E-05,-9.38E-06,2.49E-09,-9.38E-06,-8.60E-06,-7.39E-06,2.49E-09,0.24364,0.3583,-4.85E-03,0.27011,-89027,2.95E+05,70085,1.76E+05,-89027,2.95E+05,0,1.13E-02,3.12E-07,1.94E-03,0,1.13E-02,0,8.32E+08,1.22E+05,4.89E+08,0,8.32E+08,-9.38E-06,2.49E-09,-4.85E-03,0.3583,-89027,2.95E+05,0,1.13E-02,0,8.32E+08
126,1,1.60E-05,-9.34E-06,2.39E-09,-9.34E-06,-8.56E-06,-7.35E-06,2.39E-09,0.25937,0.37643,-3.78E-03,0.28648,-86288,2.54E+05,55035,1.96E+05,-86288,2.54E+05,0,1.12E-02,2.91E-07,1.92E-03,0,1.12E-02,0,8.23E+08,1.13E+05,4.84E+08,0,8.23E+08,-9.34E-06,2.39E-09,-3.78E-03,0.37643,-86288,2.54E+05,0,1.12E-02,0,8.23E+08
127,1,1.62E-05,-9.31E-06,2.21E-09,-9.31E-06,-8.53E-06,-7.31E-06,2.21E-09,0.27521,0.39383,-3.89E-03,0.30155,-1.70E+05,1.57E+05,84930,1.57E+05,-1.70E+05,1.41E+05,0,1.11E-02,2.49E-07,1.90E-03,0,1.11E-02,0,8.13E+08,98087,4.79E+08,0,8.13E+08,-9.31E-06,2.21E-09,-3.89E-03,0.39383,-1.70E+05,1.57E+05,0,1.11E-02,0,8.13E+08
128,1,1.63E-05,-9.27E-06,2.11E-09,-9.27E-06,-8.49E-06,-7.27E-06,2.11E-09,0.29076,0.41139,-4.35E-03,0.31463,-2.37E+05,1.56E+05,77081,1.56E+05,-2.37E+05,1.03E+05,0,1.10E-02,2.44E-07,1.89E-03,0,1.10E-02,0,8.03E+08,91988,4.74E+08,0,8.03E+08,-9.27E-06,2.11E-09,-4.35E-03,0.41139,-2.37E+05,1.56E+05,0,1.10E-02,0,8.03E+08
129,1,1.64E-05,-9.23E-06,1.98E-09,-9.23E-06,-8.45E-06,-7.23E-06,1.98E-09,0.30615,0.4271,-3.18E-03,0.32659,-2.68E+05,1.64E+05,71858,1.64E+05,-2.68E+05,89732,0,1.09E-02,2.71E-07,1.87E-03,0,1.09E-02,0,7.92E+08,1.07E+05,4.68E+08,0,7.92E+08,-9.23E-06,1.98E-09,-3.18E-03,0.4271,-2.68E+05,1.64E+05,0,1.09E-02,0,7.92E+08
130,1,1.66E-05,-9.19E-06,2.29E-09,-9.19E-06,-8.41E-06,-7.19E-06,2.29E-09,0.32093,0.44301,-6.98E-03,0.33795,-1.73E+05,1.67E+05,67511,1.53E+05,-1.73E+05,1.67E+05,0,1.07E-02,2.65E-07,1.85E-03,0,1.07E-02,0,7.80E+08,1.07E+05,4.62E+08,0,7.80E+08,-9.19E-06,2.29E-09,-6.98E-03,0.44301,-1.73E+05,1.67E+05,0,1.07E-02,0,7.80E+08
131,1,1.67E-05,-9.15E-06,2.28E-09,-9.15E-06,-8.37E-06,-7.15E-06,2.28E-09,0.33471,0.45879,-4.02E-03,0.35334,-94787,2.53E+05,80177,1.81E+05,-94787,2.53E+05,0,1.06E-02,2.59E-07,1.83E-03,0,1.06E-02,0,7.67E+08,99616,4.55E+08,0,7.67E+08,-9.15E-06,2.28E-09,-4.02E-03,0.45879,-94787,2.53E+05,0,1.06E-02,0,7.67E+08
132,1,1.68E-05,-9.11E-06,2.37E-09,-9.11E-06,-8.32E-06,-7.10E-06,2.37E-09,0.34849,0.47459,-3.68E-03,0.36858,-1.07E+05,3.65E+05,75735,1.54E+05,-1.07E+05,3.65E+05,0,1.04E-02,2.57E-07,1.80E-03,0,1.04E-02,0,7.54E+08,99491,4.48E+08,0,7.54E+08,-9.11E-06,2.37E-09,-3.68E-03,0.47459,-1.07E+05,3.65E+05,0,1.04E-02,0,7.54E+08
133,1,1.69E-05,-9.06E-06,2.19E-09,-9.06E-06,-8.28E-06,-7.05E-06,2.19E-09,0.36217,0.49039,-4.46E-03,0.38356,-92718,2.43E+05,62609,1.49E+05,-92718,2.43E+05,0,1.03E-02,2.63E-07,1.78E-03,0,1.03E-02,0,7.41E+08,1.10E+05,4.41E+08,0,7.41E+08,-9.06E-06,2.19E-09,-4.46E-03,0.49039,-92718,2.43E+05,0,1.03E-02,0,7.41E+08
134,1,1.71E-05,-9.01E-06,1.90E-09,-9.01E-06,-8.23E-06,-7.00E-06,1.90E-09,0.37571,0.50581,-3.90E-03,0.39662,-1.60E+05,1.64E+05,43620,1.64E+05,-1.60E+05,1.45E+05,0,1.01E-02,2.70E-07,1.76E-03,0,1.01E-02,0,7.30E+08,1.07E+05,4.34E+08,0,7.30E+08,-9.01E-06,1.90E-09,-3.90E-03,0.50581,-1.60E+05,1.64E+05,0,1.01E-02,0,7.30E+08
135,1,1.72E-05,-8.97E-06,1.75E-09,-8.97E-06,-8.18E-06,-6.95E-06,1.75E-09,0.38998,0.52072,-3.79E-03,0.41678,-1.45E+06,3.46E+06,-1.45E+06,5.13E+05,-1.13E+06,3.46E+06,0,9.89E-03,2.44E-07,1.73E-03,0,9.89E-03,0,7.18E+08,95706,4.28E+08,0,7.18E+08,-8.97E-06,1.75E-09,-3.79E-03,0.52072,-1.45E+06,3.46E+06,0,9.89E-03,0,7.18E+08
136,1,1.73E-05,-8.91E-06,1.67E-09,-8.91E-06,-8.12E-06,-6.90E-06,1.67E-09,0.40361,0.53584,-4.70E-03,0.42446,-2.07E+06,1.29E+06,-1.89E+05,4.56E+05,-2.07E+06,1.29E+06,0,9.65E-03,2.06E-07,1.70E-03,0,9.65E-03,0,7.04E+08,82569,4.20E+08,0,7.04E+08,-8.91E-06,1.67E-09,-4.70E-03,0.53584,-2.07E+06,1.29E+06,0,9.65E-03,0,7.04E+08
137,1,1.75E-05,-8.86E-06,1.81E-09,-8.86E-06,-8.07E-06,-6.84E-06,1.81E-09,0.41565,0.55053,-1.40E-02,0.42877,-1.74E+06,8.92E+05,-1.93E+05,4.20E+05,-1.74E+06,8.92E+05,0,9.39E-03,2.10E-07,1.67E-03,0,9.39E-03,0,6.89E+08,81140,4.12E+08,0,6.89E+08,-8.86E-06,1.81E-09,-1.40E-02,0.55053,-1.74E+06,8.92E+05,0,9.39E-03,0,6.89E+08
138,1,1.76E-05,-8.81E-06,2.15E-09,-8.81E-06,-8.02E-06,-6.79E-06,2.15E-09,0.42834,0.56444,-9.28E-03,0.44422,-1.14E+06,1.27E+06,-1.61E+05,4.58E+05,-1.14E+06,1.27E+06,0,9.12E-03,2.15E-07,1.64E-03,0,9.12E-03,0,6.76E+08,82227,4.04E+08,0,6.76E+08,-8.81E-06,2.15E-09,-9.28E-03,0.56444,-1.14E+06,1.27E+06,0,9.12E-03,0,6.76E+08
139,1,1.77E-05,-8.75E-06,2.23E-09,-8.75E-06,-7.96E-06,-6.73E-06,2.23E-09,0.4411,0.57806,-3.53E-03,0.45695,-1.08E+06,1.47E+06,-1.44E+05,4.12E+05,-1.08E+06,1.47E+06,0,8.85E-03,2.25E-07,1.60E-03,0,8.85E-03,0,6.62E+08,91325,3.96E+08,0,6.62E+08,-8.75E-06,2.23E-09,-3.53E-03,0.57806,-1.08E+06,1.47E+06,0,8.85E-03,0,6.62E+08
140,1,1.78E-05,-8.69E-06,2.13E-09,-8.69E-06,-7.90E-06,-6.67E-06,2.13E-09,0.45296,0.59087,-4.47E-03,0.47148,-6.87E+05,8.53E+05,-24862,4.51E+05,-6.87E+05,8.53E+05,0,8.58E-03,2.16E-07,1.57E-03,0,8.58E-03,0,6.48E+08,91806,3.87E+08,0,6.48E+08,-8.69E-06,2.13E-09,-4.47E-03,0.59087,-6.87E+05,8.53E+05,0,8.58E-03,0,6.48E+08
141,1,1.80E-05,-8.64E-06,1.66E-09,-8.64E-06,-7.84E-06,-6.61E-06,1.66E-09,0.46499,0.60367,-5.17E-03,0.48408,-8.89E+05,8.68E+05,-2.12E+05,2.68E+05,-8.89E+05,8.68E+05,0,8.35E-03,2.26E-07,1.53E-03,0,8.35E-03,0,6.34E+08,97032,3.79E+08,0,6.34E+08,-8.64E-06,1.66E-09,-5.17E-03,0.60367,-8.89E+05,8.68E+05,0,8.35E-03,0,6.34E+08
142,1,1.81E-05,-8.57E-06,1.40E-09,-8.57E-06,-7.78E-06,-6.54E-06,1.40E-09,0.47645,0.61775,-3.90E-03,0.49555,-9.73E+05,1.04E+06,-70651,2.80E+05,-9.73E+05,1.04E+06,0,8.18E-03,2.34E-07,1.50E-03,0,8.18E-03,0,6.21E+08,94705,3.71E+08,0,6.21E+08,-8.57E-06,1.40E-09,-3.90E-03,0.61775,-9.73E+05,1.04E+06,0,8.18E-03,0,6.21E+08
143,1,1.82E-05,-8.51E-06,1.27E-09,-8.51E-06,-7.70E-06,-6.48E-06,1.27E-09,0.48739,0.63109,-3.62E-03,0.5036,-1.42E+06,5.67E+05,-73979,3.00E+05,-1.42E+06,5.67E+05,0,8.00E-03,2.25E-07,1.47E-03,0,8.00E-03,0,6.07E+08,90354,3.62E+08,0,6.07E+08,-8.51E-06,1.27E-09,-3.62E-03,0.63109,-1.42E+06,5.67E+05,0,8.00E-03,0,6.07E+08
144,1,1.84E-05,-8.45E-06,1.42E-09,-8.45E-06,-7.62E-06,-6.41E-06,1.42E-09,0.494,0.64388,-4.58E-03,0.51122,-1.17E+06,6.40E+05,-71392,2.33E+05,-1.17E+06,6.40E+05,0,7.81E-03,1.85E-07,1.43E-03,0,7.81E-03,0,5.91E+08,71968,3.53E+08,0,5.91E+08,-8.45E-06,1.42E-09,-4.58E-03,0.64388,-1.17E+06,6.40E+05,0,7.81E-03,0,5.91E+08
145,1,1.85E-05,-8.39E-06,1.66E-09,-8.39E-06,-7.53E-06,-6.35E-06,1.66E-09,0.50168,0.65632,-4.03E-03,0.51998,-5.02E+05,6.82E+05,-24667,1.95E+05,-5.02E+05,6.82E+05,0,7.61E-03,1.75E-07,1.39E-03,0,7.61E-03,0,5.75E+08,66256,3.43E+08,0,5.75E+08,-8.39E-06,1.66E-09,-4.03E-03,0.65632,-5.02E+05,6.82E+05,0,7.61E-03,0,5.75E+08
146,1,1.86E-05,-8.32E-06,1.81E-09,-8.32E-06,-7.45E-06,-6.28E-06,1.81E-09,0.51647,0.66758,-4.16E-03,0.53407,-4.25E+05,6.58E+05,-88304,2.12E+05,-4.25E+05,6.58E+05,0,7.41E-03,1.71E-07,1.35E-03,0,7.41E-03,0,5.59E+08,64752,3.33E+08,0,5.59E+08,-8.32E-06,1.81E-09,-4.16E-03,0.66758,-4.25E+05,6.58E+05,0,7.41E-03,0,5.59E+08
147,1,1.87E-05,-8.25E-06,1.89E-09,-8.25E-06,-7.36E-06,-6.21E-06,1.89E-09,0.52685,0.67822,-4.32E-03,0.54331,-4.92E+05,1.04E+06,-59183,2.01E+05,-4.92E+05,1.04E+06,0,7.22E-03,1.83E-07,1.31E-03,0,7.22E-03,0,5.43E+08,76694,3.24E+08,0,5.43E+08,-8.25E-06,1.89E-09,-4.32E-03,0.67822,-4.92E+05,1.04E+06,0,7.22E-03,0,5.43E+08
148,1,1.89E-05,-8.18E-06,1.77E-09,-8.18E-06,-7.27E-06,-6.14E-06,1.77E-09,0.53999,0.68955,-4.88E-03,0.55685,-7.67E+05,7.05E+05,-48666,2.13E+05,-7.67E+05,7.05E+05,0,7.03E-03,1.85E-07,1.27E-03,0,7.03E-03,0,5.28E+08,74277,3.14E+08,0,5.28E+08,-8.18E-06,1.77E-09,-4.88E-03,0.68955,-7.67E+05,7.05E+05,0,7.03E-03,0,5.28E+08
149,1,1.90E-05,-8.11E-06,1.32E-09,-8.11E-06,-7.18E-06,-6.07E-06,1.32E-09,0.54611,0.70018,-5.60E-03,0.56406,-6.00E+05,6.06E+05,-97253,1.66E+05,-6.00E+05,6.06E+05,0,6.83E-03,1.85E-07,1.23E-03,0,6.83E-03,0,5.12E+08,74280,3.05E+08,0,5.12E+08,-8.11E-06,1.32E-09,-5.60E-03,0.70018,-6.00E+05,6.06E+05,0,6.83E-03,0,5.12E+08
150,1,1.91E-05,-8.04E-06,9.92E-10,-8.04E-06,-7.09E-06,-6.00E-06,9.92E-10,0.55407,0.71111,-3.14E-03,0.57325,-9.97E+05,3.38E+05,-1.29E+05,1.38E+05,-9.97E+05,3.38E+05,0,6.64E-03,1.69E-07,1.19E-03,0,6.64E-03,0,4.96E+08,70744,2.95E+08,0,4.96E+08,-8.04E-06,9.92E-10,-3.14E-03,0.71111,-9.97E+05,3.38E+05,0,6.64E-03,0,4.96E+08
151,1,1.93E-05,-7.97E-06,9.80E-10,-7.97E-06,-7.00E-06,-5.92E-06,9.80E-10,0.55951,0.72137,-4.29E-03,0.57747,-8.37E+05,5.24E+05,-1.44E+05,1.91E+05,-8.37E+05,5.24E+05,0,6.43E-03,1.60E-07,1.15E-03,0,6.43E-03,0,4.79E+08,66897,2.84E+08,0,4.79E+08,-7.97E-06,9.80E-10,-4.29E-03,0.72137,-8.37E+05,5.24E+05,0,6.43E-03,0,4.79E+08
152,1,1.94E-05,-7.90E-06,1.27E-09,-7.90E-06,-6.91E-06,-5.85E-06,1.27E-09,0.56551,0.73116,-5.96E-03,0.58451,-1.17E+06,5.93E+05,-30531,1.95E+05,-1.17E+06,5.93E+05,0,6.22E-03,1.61E-07,1.10E-03,0,6.22E-03,0,4.61E+08,63564,2.73E+08,0,4.61E+08,-7.90E-06,1.27E-09,-5.96E-03,0.73116,-1.17E+06,5.93E+05,0,6.22E-03,0,4.61E+08
153,1,1.95E-05,-7.82E-06,1.57E-09,-7.82E-06,-6.81E-06,-5.77E-06,1.57E-09,0.57337,0.74113,-3.10E-03,0.59285,-6.25E+05,5.85E+05,-65875,1.96E+05,-6.25E+05,5.85E+05,0,6.00E-03,1.29E-07,1.06E-03,0,6.00E-03,0,4.43E+08,52119,2.62E+08,0,4.43E+08,-7.82E-06,1.57E-09,-3.10E-03,0.74113,-6.25E+05,5.85E+05,0,6.00E-03,0,4.43E+08
154,1,1.96E-05,-7.75E-06,1.58E-09,-7.75E-06,-6.72E-06,-5.70E-06,1.58E-09,0.58457,0.75035,-4.32E-03,0.6046,-2.83E+05,7.75E+05,-95566,1.24E+05,-2.83E+05,7.75E+05,0,5.80E-03,1.27E-07,1.01E-03,0,5.80E-03,0,4.26E+08,47566,2.52E+08,0,4.26E+08,-7.75E-06,1.58E-09,-4.32E-03,0.75035,-2.83E+05,7.75E+05,0,5.80E-03,0,4.26E+08
155,1,1.98E-05,-7.67E-06,1.41E-09,-7.67E-06,-6.62E-06,-5.62E-06,1.41E-09,0.59378,0.75876,-4.03E-03,0.61177,-4.46E+05,5.82E+05,-1.02E+05,2.00E+05,-4.46E+05,5.82E+05,0,5.60E-03,1.27E-07,9.71E-04,0,5.60E-03,0,4.09E+08,49739,2.41E+08,0,4.09E+08,-7.67E-06,1.41E-09,-4.03E-03,0.75876,-4.46E+05,5.82E+05,0,5.60E-03,0,4.09E+08
156,1,1.99E-05,-7.59E-06,1.20E-09,-7.59E-06,-6.52E-06,-5.54E-06,1.20E-09,0.6009,0.76694,-5.14E-03,0.62107,-1.32E+06,6.99E+05,-64004,2.03E+05,-1.32E+06,6.99E+05,0,5.40E-03,1.22E-07,9.28E-04,0,5.40E-03,0,3.92E+08,49410,2.30E+08,0,3.92E+08,-7.59E-06,1.20E-09,-5.14E-03,0.76694,-1.32E+06,6.99E+05,0,5.40E-03,0,3.92E+08
157,1,2.00E-05,-7.51E-06,8.58E-10,-7.51E-06,-6.42E-06,-5.46E-06,8.58E-10,0.60546,0.77403,-5.86E-03,0.62568,-7.43E+05,1.34E+06,-1.10E+05,1.31E+05,-7.43E+05,1.34E+06,0,5.20E-03,1.27E-07,8.84E-04,0,5.20E-03,0,3.74E+08,52326,2.20E+08,0,3.74E+08,-7.51E-06,8.58E-10,-5.86E-03,0.77403,-7.43E+05,1.34E+06,0,5.20E-03,0,3.74E+08
158,1,2.02E-05,-7.43E-06,6.98E-10,-7.43E-06,-6.32E-06,-5.38E-06,6.98E-10,0.60771,0.7813,-3.26E-03,0.6292,-8.14E+05,2.51E+05,-59750,1.49E+05,-8.14E+05,2.51E+05,0,4.99E-03,1.21E-07,8.38E-04,0,4.99E-03,0,3.56E+08,51028,2.08E+08,0,3.56E+08,-7.43E-06,6.98E-10,-3.26E-03,0.7813,-8.14E+05,2.51E+05,0,4.99E-03,0,3.56E+08
159,1,2.03E-05,-7.35E-06,7.78E-10,-7.35E-06,-6.22E-06,-5.30E-06,7.78E-10,0.611,0.78904,-4.58E-03,0.63196,-7.10E+05,6.84E+05,-51406,1.23E+05,-7.10E+05,6.84E+05,0,4.86E-03,1.22E-07,7.89E-04,0,4.86E-03,0,3.37E+08,51400,1.96E+08,0,3.37E+08,-7.35E-06,7.78E-10,-4.58E-03,0.78904,-7.10E+05,6.84E+05,0,4.86E-03,0,3.37E+08
160,1,2.04E-05,-7.27E-06,1.03E-09,-7.27E-06,-6.12E-06,-5.21E-06,1.03E-09,0.61819,0.79629,-4.07E-03,0.63958,-1.24E+06,5.25E+05,2118.5,1.32E+05,-1.24E+06,5.25E+05,0,4.75E-03,1.08E-07,7.41E-04,0,4.75E-03,0,3.19E+08,44365,1.85E+08,0,3.19E+08,-7.27E-06,1.03E-09,-4.07E-03,0.79629,-1.24E+06,5.25E+05,0,4.75E-03,0,3.19E+08
161,1,2.05E-05,-7.19E-06,4.52E-09,-7.19E-06,-6.02E-06,-5.13E-06,4.52E-09,0.62765,0.80341,-3.41E-03,0.64818,-2.35E+05,1.24E+06,-14967,1.43E+05,-2.35E+05,1.24E+06,0,4.66E-03,8.58E-08,6.93E-04,0,4.66E-03,0,3.00E+08,31183,1.73E+08,0,3.00E+08,-7.19E-06,4.52E-09,-3.41E-03,0.80341,-2.35E+05,1.24E+06,0,4.66E-03,0,3.00E+08
162,1,2.07E-05,-7.11E-06,2.26E-08,-7.11E-06,-5.92E-06,-5.05E-06,2.26E-08,0.63496,0.80919,-3.48E-03,0.65456,-3.22E+05,4.29E+05,6277.7,1.73E+05,-3.22E+05,4.29E+05,0,4.59E-03,7.13E-08,6.47E-04,0,4.59E-03,0,2.83E+08,26157,1.61E+08,0,2.83E+08,-7.11E-06,2.26E-08,-3.48E-03,0.80919,-3.22E+05,4.29E+05,0,4.59E-03,0,2.83E+08
163,1,2.08E-05,-7.02E-06,4.24E-08,-7.02E-06,-5.81E-06,-4.96E-06,4.24E-08,0.63985,0.81416,-4.39E-03,0.65983,-6.28E+05,5.10E+05,-10416,1.28E+05,-6.28E+05,5.10E+05,0,4.52E-03,8.49E-08,6.01E-04,0,4.52E-03,0,2.66E+08,34354,1.50E+08,0,2.66E+08,-7.02E-06,4.24E-08,-4.39E-03,0.81416,-6.28E+05,5.10E+05,0,4.52E-03,0,2.66E+08
164,1,2.09E-05,-6.94E-06,6.15E-08,-6.94E-06,-5.71E-06,-4.88E-06,6.15E-08,0.64116,0.8191,-4.23E-03,0.66281,-7.82E+05,6.70E+05,-32644,1.26E+05,-7.82E+05,6.70E+05,0,4.47E-03,7.77E-08,5.55E-04,0,4.47E-03,0,2.48E+08,32696,1.39E+08,0,2.48E+08,-6.94E-06,6.15E-08,-4.23E-03,0.8191,-7.82E+05,6.70E+05,0,4.47E-03,0,2.48E+08
165,1,2.11E-05,-6.86E-06,7.95E-08,-6.86E-06,-5.60E-06,-4.79E-06,7.95E-08,0.6432,0.82388,-4.59E-03,0.66486,-6.22E+05,4.19E+05,-12224,1.10E+05,-6.22E+05,4.19E+05,0,4.42E-03,6.40E-08,5.06E-04,0,4.42E-03,0,2.31E+08,25515,1.27E+08,0,2.31E+08,-6.86E-06,7.95E-08,-4.59E-03,0.82388,-6.22E+05,4.19E+05,0,4.42E-03,0,2.31E+08
166,1,2.12E-05,-6.77E-06,1.02E-07,-6.77E-06,-5.49E-06,-4.71E-06,1.02E-07,0.64412,0.8281,-5.51E-03,0.66705,-8.93E+05,4.44E+05,-30315,1.07E+05,-8.93E+05,4.44E+05,0,4.38E-03,5.04E-08,4.56E-04,0,4.38E-03,0,2.25E+08,17369,1.14E+08,0,2.25E+08,-6.77E-06,1.02E-07,-5.51E-03,0.8281,-8.93E+05,4.44E+05,0,4.38E-03,0,2.25E+08
167,1,2.13E-05,-6.69E-06,1.23E-07,-6.69E-06,-5.39E-06,-4.62E-06,1.23E-07,0.64786,0.8321,-4.94E-03,0.66998,-3.28E+05,4.84E+05,-12861,95133,-3.28E+05,4.84E+05,0,4.35E-03,6.21E-08,4.05E-04,0,4.35E-03,0,2.19E+08,24821,1.02E+08,0,2.19E+08,-6.69E-06,1.23E-07,-4.94E-03,0.8321,-3.28E+05,4.84E+05,0,4.35E-03,0,2.19E+08
168,1,2.14E-05,-6.60E-06,1.47E-07,-6.60E-06,-5.28E-06,-4.54E-06,1.47E-07,0.65333,0.83563,-2.75E-03,0.67473,-3.69E+05,8.24E+05,-25364,77116,-3.69E+05,8.24E+05,0,4.33E-03,4.86E-08,3.54E-04,0,4.33E-03,0,2.13E+08,19830,8.96E+07,0,2.13E+08,-6.60E-06,1.47E-07,-2.75E-03,0.83563,-3.69E+05,8.24E+05,0,4.33E-03,0,2.13E+08
169,1,2.16E-05,-6.52E-06,1.72E-07,-6.52E-06,-5.17E-06,-4.45E-06,1.72E-07,0.65939,0.83881,-4.02E-03,0.68061,-8.00E+05,6.78E+05,-93752,1.01E+05,-8.00E+05,6.78E+05,0,4.32E-03,2.62E-08,3.06E-04,0,4.32E-03,0,2.07E+08,8506,7.76E+07,0,2.07E+08,-6.52E-06,1.72E-07,-4.02E-03,0.83881,-8.00E+05,6.78E+05,0,4.32E-03,0,2.07E+08
170,1,2.17E-05,-6.43E-06,2.00E-07,-6.43E-06,-5.07E-06,-4.36E-06,2.00E-07,0.66231,0.84205,-3.24E-03,0.68422,-6.45E+05,4.59E+05,-26788,85399,-6.45E+05,4.59E+05,0,4.32E-03,2.70E-08,2.58E-04,0,4.32E-03,0,2.02E+08,7172.6,6.58E+07,0,2.02E+08,-6.43E-06,2.00E-07,-3.24E-03,0.84205,-6.45E+05,4.59E+05,0,4.32E-03,0,2.02E+08
171,1,2.18E-05,-6.34E-06,2.29E-07,-6.34E-06,-4.96E-06,-4.27E-06,2.29E-07,0.66394,0.84421,-4.11E-03,0.6857,-4.64E+05,9.33E+05,-97203,67840,-4.64E+05,9.33E+05,0,4.57E-03,2.34E-08,2.11E-04,0,4.57E-03,0,2.16E+08,6707.5,5.41E+07,0,2.16E+08,-6.34E-06,2.29E-07,-4.11E-03,0.84421,-4.64E+05,9.33E+05,0,4.57E-03,0,2.16E+08
172,1,2.20E-05,-6.26E-06,2.55E-07,-6.26E-06,-4.85E-06,-4.19E-06,2.55E-07,0.66348,0.84596,-3.27E-03,0.68506,-8.05E+05,2.11E+05,-45429,1.01E+05,-8.05E+05,2.11E+05,0,4.84E-03,1.34E-08,1.63E-04,0,4.84E-03,0,2.37E+08,2588.4,4.21E+07,0,2.37E+08,-6.26E-06,2.55E-07,-3.27E-03,0.84596,-8.05E+05,2.11E+05,0,4.84E-03,0,2.37E+08
173,1,2.21E-05,-6.17E-06,2.79E-07,-6.17E-06,-4.74E-06,-4.10E-06,2.79E-07,0.66016,0.84712,-5.18E-03,0.68348,-6.78E+05,2.46E+05,-58692,50876,-6.78E+05,2.46E+05,0,5.13E-03,1.58E-08,1.14E-04,0,5.13E-03,0,2.60E+08,1868,2.97E+07,0,2.60E+08,-6.17E-06,2.79E-07,-5.18E-03,0.84712,-6.78E+05,2.46E+05,0,5.13E-03,0,2.60E+08
174,1,2.22E-05,-6.08E-06,3.01E-07,-6.08E-06,-4.63E-06,-4.01E-06,3.01E-07,0.6599,0.84756,-6.42E-03,0.68251,-2.72E+05,3.98E+05,-49271,76224,-2.72E+05,3.98E+05,0,5.44E-03,1.44E-08,6.60E-05,0,5.44E-03,0,2.85E+08,1748.8,1.72E+07,0,2.85E+08,-6.08E-06,3.01E-07,-6.42E-03,0.84756,-2.72E+05,3.98E+05,0,5.44E-03,0,2.85E+08
175,1,2.23E-05,-5.99E-06,3.24E-07,-5.99E-06,-4.52E-06,-3.92E-06,3.24E-07,0.6797,0.8479,-2.72E-02,0.64927,-6.71E+06,2.02E+06,-6.10E+06,1.46E+06,-6.71E+06,2.02E+06,0,5.76E-03,1.49E-08,4.23E-05,0,5.76E-03,0,3.08E+08,2383.7,9.05E+06,0,3.08E+08,-5.99E-06,3.24E-07,-2.72E-02,0.8479,-6.71E+06,2.02E+06,0,5.76E-03,0,3.08E+08
176,1,2.25E-05,-5.91E-06,3.44E-07,-5.91E-06,-4.41E-06,-3.84E-06,3.44E-07,0.67936,0.84767,-3.90E-03,0.64606,-2.15E+06,3.01E+06,-1.70E+06,1.89E+06,-2.15E+06,3.01E+06,0,6.08E-03,1.30E-08,1.39E-05,0,6.08E-03,0,3.30E+08,1550.1,2.98E+06,0,3.30E+08,-5.91E-06,3.44E-07,-3.90E-03,0.84767,-2.15E+06,3.01E+06,0,6.08E-03,0,3.30E+08
177,1,2.26E-05,-5.82E-06,3.61E-07,-5.82E-06,-4.30E-06,-3.79E-06,3.61E-07,0.67864,0.84787,-5.13E-02,9.52E-02,-1.39E+07,1.52E+07,-1.17E+06,1.75E+06,-1.39E+07,1.52E+07,0,6.25E-03,1.40E-08,7.42E-07,0,6.25E-03,0,3.41E+08,3008.3,2.64E+05,0,3.41E+08,-5.82E-06,3.61E-07,-5.13E-02,0.84787,-1.39E+07,1.52E+07,0,6.25E-03,0,3.41E+08
178,1,2.27E-05,-5.73E-06,3.61E-07,-5.73E-06,-4.20E-06,-3.79E-06,3.61E-07,0.67852,0.84874,-4.05E-02,6.19E-02,-8.87E+06,9.78E+06,-1.59E+06,8.89E+05,-8.87E+06,9.78E+06,0,6.28E-03,1.76E-08,5.14E-07,0,6.28E-03,0,3.42E+08,1262.7,1.82E+05,0,3.42E+08,-5.73E-06,3.61E-07,-4.05E-02,0.84874,-8.87E+06,9.78E+06,0,6.28E-03,0,3.42E+08
179,1,2.29E-05,-5.65E-06,3.62E-07,-5.65E-06,-4.09E-06,-3.79E-06,3.62E-07,0.67887,0.84852,-8.84E-02,2.71E-02,-2.72E+06,2.57E+06,-7.37E+05,5.84E+05,-2.72E+06,2.57E+06,0,6.27E-03,1.54E-08,4.22E-07,0,6.27E-03,0,3.42E+08,2221.6,1.38E+05,0,3.42E+08,-5.65E-06,3.62E-07,-8.84E-02,0.84852,-2.72E+06,2.57E+06,0,6.27E-03,0,3.42E+08
180,1,2.30E-05,-5.56E-06,3.58E-07,-5.56E-06,-3.98E-06,-3.79E-06,3.58E-07,0.67959,0.84796,-0.12788,3.73E-03,-3.89E+06,2.34E+06,-5.00E+05,8.21E+05,-3.89E+06,2.34E+06,0,6.27E-03,1.31E-08,3.75E-07,0,6.27E-03,0,3.42E+08,2199.7,1.44E+05,0,3.42E+08,-5.56E-06,3.58E-07,-0.12788,0.84796,-3.89E+06,2.34E+06,0,6.27E-03,0,3.42E+08
181,1,2.31E-05,-5.47E-06,3.53E-07,-5.47E-06,-3.87E-06,-3.80E-06,3.53E-07,0.67951,0.84773,-7.37E-02,3.62E-03,-3.60E+06,5.01E+06,-4.43E+05,4.59E+05,-3.60E+06,5.01E+06,0,6.27E-03,1.60E-08,3.24E-07,0,6.27E-03,0,3.42E+08,2523.7,1.39E+05,0,3.42E+08,-5.47E-06,3.53E-07,-7.37E-02,0.84773,-3.60E+06,5.01E+06,0,6.27E-03,0,3.42E+08
182,1,2.32E-05,-5.38E-06,3.48E-07,-5.38E-06,-3.76E-06,-3.80E-06,3.48E-07,0.67861,0.84731,-7.21E-02,3.64E-02,-4.17E+06,4.43E+06,-4.51E+05,3.26E+05,-4.17E+06,4.43E+06,0,6.27E-03,1.65E-08,2.91E-07,0,6.27E-03,0,3.42E+08,1568.9,1.16E+05,0,3.42E+08,-5.38E-06,3.48E-07,-7.21E-02,0.84731,-4.17E+06,4.43E+06,0,6.27E-03,0,3.42E+08
183,1,2.34E-05,-5.30E-06,3.48E-07,-5.30E-06,-3.65E-06,-3.80E-06,3.48E-07,0.67812,0.84764,-1.59E-02,6.80E-02,-1.27E+06,3.93E+06,-4.00E+05,4.72E+05,-1.27E+06,3.93E+06,0,6.27E-03,1.77E-08,2.27E-07,0,6.27E-03,0,3.42E+08,1553.8,94211,0,3.42E+08,-5.30E-06,3.48E-07,-1.59E-02,0.84764,-1.27E+06,3.93E+06,0,6.27E-03,0,3.42E+08
184,1,2.35E-05,-5.21E-06,3.53E-07,-5.21E-06,-3.54E-06,-3.80E-06,3.53E-07,0.67841,0.84803,-7.53E-03,9.26E-02,-4.61E+06,2.60E+06,-3.30E+05,3.40E+05,-4.61E+06,2.60E+06,0,6.27E-03,1.71E-08,2.99E-07,0,6.27E-03,0,3.42E+08,2073.9,1.04E+05,0,3.42E+08,-5.21E-06,3.53E-07,-7.53E-03,0.84803,-4.61E+06,2.60E+06,0,6.27E-03,0,3.42E+08
185,1,2.36E-05,-5.12E-06,3.59E-07,-5.12E-06,-3.43E-06,-3.79E-06,3.59E-07,0.67935,0.84809,-6.57E-03,8.91E-02,-2.07E+06,1.50E+06,-4.04E+05,3.59E+05,-2.07E+06,1.50E+06,0,6.27E-03,1.42E-08,2.16E-07,0,6.27E-03,0,3.42E+08,1951.2,96349,0,3.42E+08,-5.12E-06,3.59E-07,-6.57E-03,0.84809,-2.07E+06,1.50E+06,0,6.27E-03,0,3.42E+08
186,1,2.37E-05,-5.04E-06,3.61E-07,-5.04E-06,-3.33E-06,-3.79E-06,3.61E-07,0.67988,0.84847,-3.63E-02,3.25E-02,-1.84E+06,1.75E+06,-3.85E+05,2.42E+05,-1.84E+06,1.75E+06,0,6.27E-03,1.83E-08,2.04E-07,0,6.27E-03,0,3.42E+08,1348.2,69291,0,3.42E+08,-5.04E-06,3.61E-07,-3.63E-02,0.84847,-1.84E+06,1.75E+06,0,6.27E-03,0,3.42E+08
187,1,2.39E-05,-4.95E-06,3.61E-07,-4.95E-06,-3.22E-06,-3.79E-06,3.61E-07,0.67963,0.84814,-5.48E-02,7.45E-03,-3.59E+06,2.21E+06,-4.36E+05,2.81E+05,-3.59E+06,2.21E+06,0,6.27E-03,1.70E-08,1.82E-07,0,6.27E-03,0,3.42E+08,2141,70488,0,3.42E+08,-4.95E-06,3.61E-07,-5.48E-02,0.84814,-3.59E+06,2.21E+06,0,6.27E-03,0,3.42E+08
188,1,2.40E-05,-4.86E-06,3.55E-07,-4.86E-06,-3.11E-06,-3.80E-06,3.55E-07,0.67886,0.84843,-6.05E-02,7.67E-03,-1.19E+06,2.57E+06,-2.14E+05,2.61E+05,-1.19E+06,2.57E+06,0,6.27E-03,1.68E-08,2.03E-07,0,6.27E-03,0,3.42E+08,1015.7,87350,0,3.42E+08,-4.86E-06,3.55E-07,-6.05E-02,0.84843,-1.19E+06,2.57E+06,0,6.27E-03,0,3.42E+08
189,1,2.41E-05,-4.77E-06,3.52E-07,-4.77E-06,-3.00E-06,-3.80E-06,3.52E-07,0.67818,0.84797,-5.22E-02,5.31E-03,-9.93E+05,1.44E+06,-2.34E+05,2.96E+05,-9.93E+05,1.44E+06,0,6.27E-03,1.61E-08,1.89E-07,0,6.27E-03,0,3.42E+08,2293.2,69271,0,3.42E+08,-4.77E-06,3.52E-07,-5.22E-02,0.84797,-9.93E+05,1.44E+06,0,6.27E-03,0,3.42E+08
190,1,2.43E-05,-4.69E-06,3.49E-07,-4.69E-06,-2.89E-06,-3.80E-06,3.49E-07,0.67817,0.8475,-2.91E-02,2.07E-02,-1.36E+06,1.72E+06,-1.87E+05,2.05E+05,-1.36E+06,1.72E+06,0,6.27E-03,1.63E-08,1.73E-07,0,6.27E-03,0,3.43E+08,1737.6,74694,0,3.43E+08,-4.69E-06,3.49E-07,-2.91E-02,0.8475,-1.36E+06,1.72E+06,0,6.27E-03,0,3.43E+08
191,1,2.44E-05,-4.60E-06,3.50E-07,-4.60E-06,-2.78E-06,-3.80E-06,3.50E-07,0.67842,0.84761,-1.02E-02,6.40E-02,-1.59E+06,1.56E+06,-1.94E+05,1.93E+05,-1.59E+06,1.56E+06,0,6.27E-03,1.59E-08,1.87E-07,0,6.27E-03,0,3.43E+08,2353.7,83253,0,3.43E+08,-4.60E-06,3.50E-07,-1.02E-02,0.84761,-1.59E+06,1.56E+06,0,6.27E-03,0,3.43E+08
192,1,2.45E-05,-4.51E-06,3.55E-07,-4.51E-06,-2.67E-06,-3.80E-06,3.55E-07,0.67938,0.84752,-5.97E-03,5.67E-02,-1.29E+06,1.64E+06,-1.89E+05,1.55E+05,-1.29E+06,1.64E+06,0,6.27E-03,1.63E-08,1.82E-07,0,6.27E-03,0,3.42E+08,2380.9,80442,0,3.42E+08,-4.51E-06,3.55E-07,-5.97E-03,0.84752,-1.29E+06,1.64E+06,0,6.27E-03,0,3.42E+08
193,1,2.46E-05,-4.43E-06,3.59E-07,-4.43E-06,-2.56E-06,-3.79E-06,3.59E-07,0.67973,0.84765,-6.22E-03,4.88E-02,-1.29E+06,8.77E+05,-1.87E+05,1.49E+05,-1.29E+06,8.77E+05,0,6.27E-03,1.72E-08,1.72E-07,0,6.27E-03,0,3.42E+08,2772.2,73767,0,3.42E+08,-4.43E-06,3.59E-07,-6.22E-03,0.84765,-1.29E+06,8.77E+05,0,6.27E-03,0,3.42E+08
194,1,2.48E-05,-4.34E-06,3.60E-07,-4.34E-06,-2.45E-06,-3.79E-06,3.60E-07,0.67939,0.8483,-3.12E-02,2.12E-02,-1.39E+06,1.47E+06,-90751,1.30E+05,-1.39E+06,1.47E+06,0,6.27E-03,1.25E-08,1.70E-07,0,6.27E-03,0,3.42E+08,2081.7,75965,0,3.42E+08,-4.34E-06,3.60E-07,-3.12E-02,0.8483,-1.39E+06,1.47E+06,0,6.27E-03,0,3.42E+08
195,1,2.49E-05,-4.25E-06,3.58E-07,-4.25E-06,-2.35E-06,-3.79E-06,3.58E-07,0.67945,0.84867,-4.30E-02,6.73E-03,-1.28E+06,8.77E+05,-1.63E+05,1.36E+05,-1.28E+06,8.77E+05,0,6.27E-03,1.55E-08,1.60E-07,0,6.27E-03,0,3.43E+08,2377.1,69295,0,3.43E+08,-4.25E-06,3.58E-07,-4.30E-02,0.84867,-1.28E+06,8.77E+05,0,6.27E-03,0,3.43E+08
196,1,2.50E-05,-4.16E-06,3.55E-07,-4.16E-06,-2.24E-06,-3.80E-06,3.55E-07,0.67908,0.84876,-4.70E-02,7.26E-03,-1.77E+06,1.51E+06,-1.03E+05,1.29E+05,-1.77E+06,1.51E+06,0,6.27E-03,1.82E-08,1.68E-07,0,6.27E-03,0,3.42E+08,2786.7,74630,0,3.42E+08,-4.16E-06,3.55E-07,-4.70E-02,0.84876,-1.77E+06,1.51E+06,0,6.27E-03,0,3.42E+08
197,1,2.52E-05,-4.08E-06,3.51E-07,-4.08E-06,-2.13E-06,-3.80E-06,3.51E-07,0.67905,0.84806,-3.42E-02,7.82E-03,-9.78E+05,1.11E+06,-1.40E+05,1.47E+05,-9.78E+05,1.11E+06,0,6.27E-03,1.91E-08,1.76E-07,0,6.27E-03,0,3.42E+08,2935.7,78403,0,3.42E+08,-4.08E-06,3.51E-07,-3.42E-02,0.84806,-9.78E+05,1.11E+06,0,6.27E-03,0,3.42E+08
198,1,2.53E-05,-3.99E-06,3.51E-07,-3.99E-06,-2.02E-06,-3.80E-06,3.51E-07,0.67847,0.84758,-1.34E-02,2.08E-02,-5.82E+05,1.06E+06,-78121,1.90E+05,-5.82E+05,1.06E+06,0,6.27E-03,1.59E-08,1.48E-07,0,6.27E-03,0,3.42E+08,3456.4,65697,0,3.42E+08,-3.99E-06,3.51E-07,-1.34E-02,0.84758,-5.82E+05,1.06E+06,0,6.27E-03,0,3.42E+08
199,1,2.54E-05,-3.90E-06,3.53E-07,-3.90E-06,-1.91E-06,-3.80E-06,3.53E-07,0.67834,0.84712,-7.32E-03,3.84E-02,-6.21E+05,7.51E+05,-1.26E+05,1.12E+05,-6.21E+05,7.51E+05,0,6.27E-03,1.23E-08,1.49E-07,0,6.27E-03,0,3.42E+08,2440.4,66578,0,3.42E+08,-3.90E-06,3.53E-07,-7.32E-03,0.84712,-6.21E+05,7.51E+05,0,6.27E-03,0,3.42E+08
200,1,2.55E-05,-3.81E-06,3.56E-07,-3.81E-06,-1.80E-06,-3.79E-06,3.56E-07,0.67867,0.84739,-7.35E-03,4.18E-02,-6.76E+05,8.61E+05,-1.11E+05,86804,-6.76E+05,8.61E+05,0,6.27E-03,1.44E-08,1.55E-07,0,6.27E-03,0,3.42E+08,4146.7,68909,0,3.42E+08,-3.81E-06,3.56E-07,-7.35E-03,0.84739,-6.76E+05,8.61E+05,0,6.27E-03,0,3.42E+08
201,1,2.57E-05,-3.79E-06,3.59E-07,-3.73E-06,-1.69E-06,-3.79E-06,3.59E-07,0.67886,0.84811,-9.21E-03,2.51E-02,-1.03E+06,5.63E+05,-86192,56541,-1.03E+06,5.63E+05,0,6.27E-03,1.33E-08,1.42E-07,0,6.27E-03,0,3.42E+08,1764.5,62316,0,3.42E+08,-3.79E-06,3.59E-07,-9.21E-03,0.84811,-1.03E+06,5.63E+05,0,6.27E-03,0,3.42E+08
202,1,6.00E-05,,,,,,,,,,,,,,,,,,,,,,,,,,,,,,,,,,,,,,
