Unnamed: 0,Steps,Time [s],[A] Directional Deformation Flexible (Min) [m],[B] Directional Deformation Flexible (Max) [m],[C] Directional Deformation SiC (Min) [m],[D] Directional Deformation SiC (Max) [m],[E] Directional Deformation Asperity (Min) [m],[F] Directional Deformation Asperity (Max) [m],[I] Directional Velocity SiC (Min) [m/s],[J] Directional Velocity SiC (Max) [m/s],[K] Directional Velocity Asperity (Min) [m/s],[L] Directional Velocity Asperity (Max) [m/s],[M] Directional Acceleration Flexible (Min) [m/s²],[N] Directional Acceleration Flexible (Max) [m/s²],[O] Directional Acceleration SiC (Min) [m/s²],[P] Directional Acceleration SiC (Max) [m/s²],[Q] Directional Acceleration Asperity (Min) [m/s²],[R] Directional Acceleration Asperity (Max) [m/s²],[S] Equivalent Elastic Strain Flexible (Min) [m/m],[T] Equivalent Elastic Strain Flexible (Max) [m/m],[U] Equivalent Elastic Strain SiC (Min) [m/m],[V] Equivalent Elastic Strain SiC (Max) [m/m],[W] Equivalent Elastic Strain Asperity (Min) [m/m],[X] Equivalent Elastic Strain Asperity (Max) [m/m],[Y] Equivalent Stress Flexible (Min) [Pa],[Z] Equivalent Stress Flexible (Max) [Pa],[AA] Equivalent Stress SiC (Min) [Pa],[AB] Equivalent Stress SiC (Max) [Pa],[AC] Equivalent Stress Asperity (Min) [Pa],[AD] Equivalent Stress Asperity (Max) [Pa],[AE] Directional Deformation 4 (Min) [m],[AF] Directional Deformation 4 (Max) [m],[AG] Directional Velocity 4 (Min) [m/s],[AH] Directional Velocity 4 (Max) [m/s],[AI] Directional Acceleration (Min) [m/s²],[AJ] Directional Acceleration (Max) [m/s²],[AK] Equivalent Elastic Strain 4 (Min) [m/m],[AL] Equivalent Elastic Strain 4 (Max) [m/m],[AM] Equivalent Stress 4 (Min) [Pa],[AN] Equivalent Stress 4 (Max) [Pa],[AM] Equivalent Stress 4 (Min) [Pa],[AN] Equivalent Stress 4 (Max) [Pa]
1,1,1.18E-38,0,0,0,0,0,0,-35,-35,0,0,0,0,0,0,0,0,0,0,0,0,0,0,0,0,0,0,0,0,0,0,-35,0,0,0,0,0,0,0,0,0
2,1,1.39E-07,-4.86E-06,1.18E-07,-4.86E-06,-4.11E-06,-2.77E-06,1.18E-07,-36.466,-28.138,-28.991,1.104,-3.27E+08,6.79E+08,-3.27E+08,6.79E+08,-2.09E+08,1.43E+08,0.00E+00,8.85E-03,0,5.74E-03,0,8.85E-03,0,1.61E+09,0,1.61E+09,0,6.64E+08,-4.86E-06,1.18E-07,-3.65E+01,1.10E+00,-3.27E+08,6.79E+08,0.00E+00,8.85E-03,0,1.61E+09,0,3.39E+08
3,1,2.80E-07,-9.80E-06,2.75E-09,-9.80E-06,-8.22E-06,-6.71E-06,2.75E-09,-36.032,-31.272,-30.556,4.05E-02,-2.64E+08,2.53E+08,-2.64E+08,2.53E+08,-9.42E+07,1.52E+08,0.00E+00,1.20E-02,1.26E-08,9.97E-03,0.00E+00,1.20E-02,0,2.68E+09,5306.3,2.68E+09,0,9.40E+08,-9.80E-06,2.75E-09,-3.60E+01,4.05E-02,-2.64E+08,2.53E+08,0.00E+00,1.20E-02,0,2.68E+09,0,6.77E+08
4,1,4.21E-07,-1.47E-05,7.42E-09,-1.47E-05,-1.25E-05,-1.09E-05,7.42E-09,-35.386,-30.206,-29.823,0.17291,-2.57E+08,1.30E+08,-2.57E+08,1.30E+08,-7.10E+07,8.20E+07,0.00E+00,1.26E-02,2.38E-07,1.26E-02,0.00E+00,1.22E-02,0,3.39E+09,1.06E+05,3.39E+09,0,1.05E+09,-1.47E-05,7.42E-09,-3.54E+01,1.73E-01,-2.57E+08,1.30E+08,0.00E+00,1.26E-02,0,3.39E+09,0,7.26E+08
5,1,5.63E-07,-2.01E-05,1.55E-08,-2.01E-05,-1.79E-05,-1.06E-05,1.55E-08,-69.316,179.38,-15.314,192.88,-5.14E+09,7.64E+10,-5.14E+09,7.64E+10,-1.84E+09,2.24E+09,0.00E+00,9.49E-03,6.90E-07,8.95E-03,0.00E+00,9.49E-03,0,2.91E+09,2.85E+05,2.91E+09,0,8.56E+08,-2.01E-05,1.55E-08,-6.93E+01,1.93E+02,-5.14E+09,7.64E+10,0.00E+00,9.49E-03,0,2.91E+09,0,8.19E+08
6,1,7.04E-07,-2.47E-05,9.39E-07,-2.47E-05,-6.02E-07,-1.16E-05,9.39E-07,-52.724,118.18,-54.646,24.433,-2.78E+09,3.76E+09,-2.78E+09,1.84E+09,-1.96E+09,3.76E+09,0.00E+00,1.14E-02,1.18E-06,9.66E-03,0.00E+00,1.14E-02,0,3.81E+09,4.65E+05,3.81E+09,0.00E+00,1.12E+09,-2.47E-05,9.39E-07,-5.46E+01,1.18E+02,-2.78E+09,3.76E+09,0.00E+00,1.14E-02,0,3.81E+09,0,1.10E+09
7,1,8.45E-07,-2.95E-05,1.52E-07,-2.95E-05,-4.72E-06,-1.46E-05,1.52E-07,-149.91,-24.688,-52.066,13.874,-1.95E+09,1.54E+09,-1.95E+09,1.54E+09,-1.09E+09,8.59E+08,0.00E+00,1.73E-02,7.79E-07,1.73E-02,0.00E+00,1.22E-02,0,6.66E+09,2.91E+05,6.66E+09,0.00E+00,1.13E+09,-2.95E-05,1.52E-07,-1.50E+02,1.39E+01,-1.95E+09,1.54E+09,0.00E+00,1.73E-02,0,6.66E+09,0,1.24E+09
8,1,9.86E-07,-3.45E-05,8.78E-08,-3.45E-05,-2.57E-05,-2.10E-05,8.78E-08,-79.942,-28.108,-52.735,7.7267,-1.39E+09,1.83E+10,-1.39E+09,1.83E+10,-8.00E+08,6.10E+08,0.00E+00,1.88E-02,1.97E-07,1.88E-02,0.00E+00,1.25E-02,0,7.52E+09,27757,7.52E+09,0.00E+00,1.19E+09,-3.45E-05,8.78E-08,-7.99E+01,7.73E+00,-1.39E+09,1.83E+10,0.00E+00,1.88E-02,0,7.52E+09,0,1.49E+09
9,1,1.13E-06,-3.94E-05,1.01E-07,-3.94E-05,-2.33E-05,-2.76E-05,1.01E-07,-41.186,46.852,-47.54,12.577,-1.83E+09,3.68E+09,-1.83E+09,3.68E+09,-4.84E+08,5.13E+08,0.00E+00,2.32E-02,2.42E-07,2.32E-02,0.00E+00,1.26E-02,0,9.25E+09,73506,9.25E+09,0.00E+00,1.21E+09,-3.94E-05,1.01E-07,-4.75E+01,4.69E+01,-1.83E+09,3.68E+09,0.00E+00,2.32E-02,0,9.25E+09,0,1.66E+09
10,1,1.27E-06,-4.42E-05,9.21E-08,-4.42E-05,-1.39E-05,-3.35E-05,9.21E-08,-43.996,180.67,-56.63,7.561,-1.71E+09,1.65E+09,-1.71E+09,1.65E+09,-1.36E+09,4.64E+08,0.00E+00,1.30E-02,9.06E-07,1.30E-02,0.00E+00,1.27E-02,0,3.03E+09,2.44E+05,3.03E+09,0.00E+00,1.24E+09,-4.42E-05,9.21E-08,-5.66E+01,1.81E+02,-1.71E+09,1.65E+09,0.00E+00,1.30E-02,0,3.03E+09,0,1.79E+09
11,1,1.41E-06,-4.91E-05,1.17E-05,-4.91E-05,1.17E-05,-4.06E-05,1.03E-07,-89.959,180.67,-40.319,7.5682,-1.36E+09,1.14E+09,-1.36E+09,1.14E+09,-4.32E+08,4.09E+08,0.00E+00,1.27E-02,3.46E-06,1.07E-02,0.00E+00,1.27E-02,0,3.96E+09,1.03E+06,3.96E+09,0.00E+00,1.27E+09,-4.91E-05,1.17E-05,-9.00E+01,1.81E+02,-1.36E+09,1.14E+09,0.00E+00,1.27E-02,0,3.96E+09,0,1.86E+09
12,1,1.55E-06,-5.40E-05,1.05E-05,-5.40E-05,1.05E-05,-4.79E-05,8.40E-08,-93.625,-26.664,-51.521,14.142,-9.52E+08,9.99E+08,-9.52E+08,9.99E+08,-3.53E+08,6.47E+08,0.00E+00,1.80E-02,2.38E-06,1.80E-02,0.00E+00,1.28E-02,0,7.56E+09,5.26E+05,7.56E+09,0.00E+00,1.28E+09,-5.40E-05,1.05E-05,-9.36E+01,1.41E+01,-9.52E+08,9.99E+08,0.00E+00,1.80E-02,0,7.56E+09,0,1.90E+09
13,1,1.69E-06,-5.88E-05,6.53E-07,-5.88E-05,6.53E-07,-5.55E-05,9.99E-08,-93.625,-16.88,-44.9,11.869,-8.04E+08,9.06E+08,-8.04E+08,9.06E+08,-4.77E+08,4.38E+08,0.00E+00,1.97E-02,1.15E-06,1.97E-02,0.00E+00,1.28E-02,0,8.37E+09,3.19E+05,8.37E+09,0.00E+00,1.30E+09,-5.88E-05,6.53E-07,-9.36E+01,1.19E+01,-8.04E+08,9.06E+08,0.00E+00,1.97E-02,0,8.37E+09,0,1.92E+09
14,1,1.83E-06,-6.35E-05,1.15E-07,-6.35E-05,-9.19E-06,-6.16E-05,1.15E-07,-93.625,-13.816,-35.942,6.3642,-4.29E+08,6.53E+08,-4.29E+08,6.53E+08,-2.87E+08,3.25E+08,0.00E+00,1.98E-02,1.47E-06,1.98E-02,0.00E+00,1.28E-02,0,8.47E+09,1.78E+05,8.47E+09,0.00E+00,1.33E+09,-6.35E-05,1.15E-07,-9.36E+01,6.36E+00,-4.29E+08,6.53E+08,0.00E+00,1.98E-02,0,8.47E+09,0,1.94E+09
15,1,1.98E-06,-6.83E-05,1.07E-07,-6.83E-05,-1.90E-05,-6.67E-05,1.07E-07,-93.625,-13.816,-37.145,4.2271,-4.10E+08,4.01E+08,-4.10E+08,4.01E+08,-2.04E+08,2.88E+08,0.00E+00,2.02E-02,1.70E-06,2.02E-02,0.00E+00,1.28E-02,0,8.70E+09,4.04E+05,8.70E+09,0.00E+00,1.35E+09,-6.83E-05,1.07E-07,-9.36E+01,4.23E+00,-4.10E+08,4.01E+08,0.00E+00,2.02E-02,0,8.70E+09,0,1.95E+09
16,1,2.12E-06,-7.30E-05,1.36E-07,-7.30E-05,-3.23E-05,-7.18E-05,1.36E-07,-126.33,1.45,-36.398,5.0796,-3.47E+08,8.41E+08,-3.47E+08,8.41E+08,-2.74E+08,2.29E+08,0.00E+00,2.04E-02,2.53E-06,2.04E-02,0.00E+00,1.28E-02,0,8.83E+09,7.04E+05,8.83E+09,0.00E+00,1.36E+09,-7.30E-05,1.36E-07,-1.26E+02,5.08E+00,-3.47E+08,8.41E+08,0.00E+00,2.04E-02,0,8.83E+09,0,1.95E+09
17,1,2.26E-06,-7.77E-05,1.37E-07,-7.77E-05,-5.01E-05,-7.68E-05,1.37E-07,-126.33,1.45,-36.275,5.5595,-4.28E+08,6.23E+08,-4.28E+08,6.23E+08,-2.77E+08,2.49E+08,0.00E+00,2.02E-02,3.42E-06,2.02E-02,0.00E+00,1.28E-02,0,8.77E+09,1.29E+06,8.77E+09,0.00E+00,1.37E+09,-7.77E-05,1.37E-07,-1.26E+02,5.56E+00,-4.28E+08,6.23E+08,0.00E+00,2.02E-02,0,8.77E+09,0,1.95E+09
18,1,2.40E-06,-8.23E-05,1.51E-07,-8.23E-05,-6.28E-05,-8.17E-05,1.51E-07,-126.33,1.45,-34.481,5.9958,-8.64E+08,3.90E+08,-8.64E+08,3.90E+08,-1.94E+08,2.53E+08,0.00E+00,1.98E-02,2.44E-06,1.98E-02,0.00E+00,1.28E-02,0,8.65E+09,6.75E+05,8.65E+09,0.00E+00,1.39E+09,-8.23E-05,1.51E-07,-1.26E+02,6.00E+00,-8.64E+08,3.90E+08,0.00E+00,1.98E-02,0,8.65E+09,0,1.93E+09
19,1,2.54E-06,-8.69E-05,1.20E-07,-8.69E-05,-6.32E-05,-8.66E-05,1.20E-07,-114.38,1.45,-33.959,10.482,-8.33E+09,4.84E+08,-8.33E+09,4.84E+08,-1.75E+08,3.62E+08,0.00E+00,1.97E-02,1.65E-06,1.97E-02,0.00E+00,1.28E-02,0,8.60E+09,2.89E+05,8.60E+09,0.00E+00,1.39E+09,-8.69E-05,1.20E-07,-1.14E+02,1.05E+01,-8.33E+09,4.84E+08,0.00E+00,1.97E-02,0,8.60E+09,0,1.91E+09
20,1,2.68E-06,-9.14E-05,1.41E-06,-9.14E-05,-6.30E-05,-9.14E-05,1.41E-06,-61.293,1.45,-35.241,11.196,-4.83E+08,7.97E+08,-4.83E+08,7.97E+08,-1.67E+08,1.86E+08,0.00E+00,1.95E-02,1.30E-06,1.95E-02,0.00E+00,1.28E-02,0,8.58E+09,3.63E+05,8.58E+09,0.00E+00,1.39E+09,-9.14E-05,1.41E-06,-6.13E+01,1.12E+01,-4.83E+08,7.97E+08,0.00E+00,1.95E-02,0,8.58E+09,0,1.90E+09
21,1,2.82E-06,-9.61E-05,2.44E-06,-9.59E-05,-6.28E-05,-9.61E-05,2.44E-06,-40.822,1.45,-36.452,4.8871,-5.04E+08,5.85E+08,-5.04E+08,5.85E+08,-1.38E+08,2.13E+08,0.00E+00,1.92E-02,1.99E-06,1.92E-02,0.00E+00,1.27E-02,0,8.46E+09,4.81E+05,8.46E+09,0.00E+00,1.40E+09,-9.61E-05,2.44E-06,-4.08E+01,4.89E+00,-5.04E+08,5.85E+08,0.00E+00,1.92E-02,0,8.46E+09,0,1.85E+09
22,1,2.96E-06,-1.00E-04,2.71E-06,-1.00E-04,-6.36E-05,-1.00E-04,2.71E-06,-40.822,-15.471,-34.081,2.9846,-4.50E+08,3.55E+08,-4.50E+08,3.55E+08,-1.35E+08,1.37E+08,0.00E+00,1.90E-02,3.06E-06,1.90E-02,0.00E+00,1.27E-02,0,8.38E+09,3.95E+05,8.38E+09,0.00E+00,1.40E+09,-1.00E-04,2.71E-06,-4.08E+01,2.98E+00,-4.50E+08,3.55E+08,0.00E+00,1.90E-02,0,8.38E+09,0,1.81E+09
23,1,3.11E-06,-1.05E-04,2.57E-06,-1.05E-04,-6.93E-05,-1.05E-04,2.57E-06,-46.537,-15.471,-32.617,4.0958,-3.71E+08,3.34E+08,-3.71E+08,3.34E+08,-1.15E+08,1.42E+08,0.00E+00,1.90E-02,2.79E-06,1.90E-02,0.00E+00,1.27E-02,0,8.41E+09,7.45E+05,8.41E+09,0.00E+00,1.39E+09,-1.05E-04,2.57E-06,-4.65E+01,4.10E+00,-3.71E+08,3.34E+08,0.00E+00,1.90E-02,0,8.41E+09,0,1.75E+09
24,1,3.25E-06,-1.09E-04,2.77E-06,-1.09E-04,-7.59E-05,-1.09E-04,2.77E-06,-46.537,-20.93,-32.765,4.3748,-3.11E+08,2.92E+08,-3.11E+08,2.92E+08,-1.87E+08,1.60E+08,0.00E+00,1.87E-02,2.74E-06,1.87E-02,0.00E+00,1.27E-02,0,8.28E+09,6.54E+05,8.28E+09,0.00E+00,1.39E+09,-1.09E-04,2.77E-06,-4.65E+01,4.37E+00,-3.11E+08,2.92E+08,0.00E+00,1.87E-02,0,8.28E+09,0,1.70E+09
25,1,3.39E-06,-1.14E-04,3.11E-06,-1.13E-04,-8.25E-05,-1.14E-04,3.11E-06,-46.537,-20.93,-31.948,6.2536,-3.86E+08,3.56E+08,-3.86E+08,3.56E+08,-1.25E+08,2.09E+08,0.00E+00,1.82E-02,3.71E-06,1.82E-02,0.00E+00,1.28E-02,0,8.04E+09,1.29E+06,8.04E+09,0.00E+00,1.39E+09,-1.14E-04,3.11E-06,-4.65E+01,6.25E+00,-3.86E+08,3.56E+08,0.00E+00,1.82E-02,0,8.04E+09,0,1.70E+09
26,1,3.53E-06,-1.18E-04,3.87E-06,-1.18E-04,-8.90E-05,-1.18E-04,3.87E-06,-46.537,-20.93,-33.368,6.9695,-2.56E+08,3.31E+08,-2.56E+08,3.31E+08,-1.31E+08,1.00E+08,0.00E+00,1.77E-02,3.84E-06,1.77E-02,0.00E+00,1.28E-02,0,7.83E+09,1.09E+06,7.83E+09,0.00E+00,1.39E+09,-1.18E-04,3.87E-06,-4.65E+01,6.97E+00,-2.56E+08,3.31E+08,0.00E+00,1.77E-02,0,7.83E+09,0,1.70E+09
27,1,3.67E-06,-1.22E-04,4.38E-06,-1.22E-04,-9.56E-05,-1.22E-04,4.38E-06,-46.537,-20.93,-32.983,4.3216,-2.59E+08,2.07E+08,-2.59E+08,2.07E+08,-1.31E+08,1.21E+08,0.00E+00,1.75E-02,2.69E-06,1.75E-02,0.00E+00,1.29E-02,0,7.72E+09,4.76E+05,7.72E+09,0.00E+00,1.39E+09,-1.22E-04,4.38E-06,-4.65E+01,4.32E+00,-2.59E+08,2.07E+08,0.00E+00,1.75E-02,0,7.72E+09,0,1.69E+09
28,1,3.81E-06,-1.26E-04,4.34E-06,-1.26E-04,-1.02E-04,-1.26E-04,4.34E-06,-46.537,-20.93,-31.956,4.3605,-2.50E+08,2.40E+08,-2.50E+08,2.40E+08,-1.17E+08,1.01E+08,0.00E+00,1.73E-02,3.04E-06,1.73E-02,0.00E+00,1.29E-02,0,7.63E+09,7.91E+05,7.63E+09,0.00E+00,1.39E+09,-1.26E-04,4.34E-06,-4.65E+01,4.36E+00,-2.50E+08,2.40E+08,0.00E+00,1.73E-02,0,7.63E+09,0,1.69E+09
29,1,3.95E-06,-1.30E-04,4.38E-06,-1.30E-04,-1.05E-04,-1.30E-04,4.38E-06,-46.537,-20.93,-30.956,2.6721,-2.10E+09,1.15E+09,-2.10E+09,1.15E+09,-9.37E+07,1.09E+08,0.00E+00,1.55E-02,2.22E-06,1.55E-02,0.00E+00,1.29E-02,0,6.84E+09,7.40E+05,6.84E+09,0.00E+00,1.38E+09,-1.30E-04,4.38E-06,-4.65E+01,2.67E+00,-2.10E+09,1.15E+09,0.00E+00,1.55E-02,0,6.84E+09,0,1.69E+09
30,1,4.09E-06,-1.34E-04,4.58E-06,-1.34E-04,-1.08E-04,-1.34E-04,4.58E-06,-46.537,-20.514,-30.448,3.361,-2.29E+09,1.22E+09,-2.29E+09,1.22E+09,-1.01E+08,1.01E+08,0.00E+00,1.30E-02,1.93E-06,1.29E-02,0.00E+00,1.30E-02,0,5.55E+09,5.69E+05,5.55E+09,0.00E+00,1.39E+09,-1.34E-04,4.58E-06,-4.65E+01,3.36E+00,-2.29E+09,1.22E+09,0.00E+00,1.30E-02,0,5.55E+09,0,1.69E+09
31,1,4.24E-06,-1.38E-04,4.68E-06,-1.38E-04,-1.11E-04,-1.38E-04,4.68E-06,-46.537,-20.514,-29.578,2.1599,-1.98E+08,2.60E+08,-1.98E+08,2.60E+08,-1.13E+08,2.38E+08,0.00E+00,1.30E-02,3.55E-06,1.12E-02,0.00E+00,1.30E-02,0,4.39E+09,1.41E+06,4.39E+09,0.00E+00,1.39E+09,-1.38E-04,4.68E-06,-4.65E+01,2.16E+00,-1.98E+08,2.60E+08,0.00E+00,1.30E-02,0,4.39E+09,0,1.69E+09
32,1,4.38E-06,-1.42E-04,4.53E-06,-1.42E-04,-1.14E-04,-1.41E-04,4.53E-06,-46.537,-20.514,-28.312,4.0283,-4.90E+08,7.91E+08,-4.90E+08,7.91E+08,-2.23E+08,9.82E+07,0.00E+00,1.30E-02,2.94E-06,1.09E-02,0.00E+00,1.30E-02,0,3.66E+09,7.07E+05,3.66E+09,0.00E+00,1.39E+09,-1.42E-04,4.53E-06,-4.65E+01,4.03E+00,-4.90E+08,7.91E+08,0.00E+00,1.30E-02,0,3.66E+09,0,1.64E+09
33,1,4.52E-06,-1.46E-04,4.57E-06,-1.46E-04,-1.17E-04,-1.45E-04,4.57E-06,-46.537,-20.514,-28.327,3.091,-5.66E+08,7.04E+08,-5.66E+08,7.04E+08,-2.08E+08,3.57E+08,0.00E+00,1.30E-02,5.76E-06,1.06E-02,0.00E+00,1.30E-02,0,3.55E+09,1.75E+06,3.55E+09,0.00E+00,1.39E+09,-1.46E-04,4.57E-06,-4.65E+01,3.09E+00,-5.66E+08,7.04E+08,0.00E+00,1.30E-02,0,3.55E+09,0,1.58E+09
34,1,4.66E-06,-1.50E-04,4.62E-06,-1.50E-04,-1.20E-04,-1.49E-04,4.62E-06,-46.537,-20.514,-27.325,3.0501,-4.10E+08,1.02E+09,-4.10E+08,1.02E+09,-1.63E+08,6.90E+08,0.00E+00,1.31E-02,3.27E-06,1.02E-02,0.00E+00,1.31E-02,0,3.43E+09,9.52E+05,3.43E+09,0.00E+00,1.39E+09,-1.50E-04,4.62E-06,-4.65E+01,3.05E+00,-4.10E+08,1.02E+09,0.00E+00,1.31E-02,0,3.43E+09,0,1.53E+09
35,1,4.80E-06,-1.53E-04,4.41E-06,-1.53E-04,-1.23E-04,-1.52E-04,4.41E-06,-46.537,-20.514,-28.754,2.5803,-7.85E+08,1.20E+09,-7.85E+08,1.20E+09,-1.51E+08,1.60E+08,0.00E+00,1.30E-02,3.49E-06,9.97E-03,0.00E+00,1.30E-02,0,3.32E+09,5.94E+05,3.32E+09,0.00E+00,1.39E+09,-1.53E-04,4.41E-06,-4.65E+01,2.58E+00,-7.85E+08,1.20E+09,0.00E+00,1.30E-02,0,3.32E+09,0,1.46E+09
36,1,4.94E-06,-1.57E-04,4.43E-06,-1.57E-04,-1.26E-04,-1.56E-04,4.43E-06,-28.055,-7.6226,-29.421,3.1492,-4.27E+08,3.75E+08,-4.27E+08,3.75E+08,-1.46E+08,2.02E+08,0.00E+00,1.30E-02,1.59E-06,9.98E-03,0.00E+00,1.30E-02,0,3.32E+09,6.45E+05,3.32E+09,0.00E+00,1.40E+09,-1.57E-04,4.43E-06,-2.94E+01,3.15E+00,-4.27E+08,3.75E+08,0.00E+00,1.30E-02,0,3.32E+09,0,1.35E+09
37,1,5.08E-06,-1.61E-04,4.39E-06,-1.61E-04,-1.29E-04,-1.59E-04,4.39E-06,-27.927,-7.6226,-30.571,2.7839,-5.66E+08,4.96E+08,-5.66E+08,4.96E+08,-2.83E+08,1.48E+08,0.00E+00,1.29E-02,3.57E-06,9.83E-03,0.00E+00,1.29E-02,0,3.22E+09,5.32E+05,3.22E+09,0.00E+00,1.40E+09,-1.61E-04,4.39E-06,-3.06E+01,2.78E+00,-5.66E+08,4.96E+08,0.00E+00,1.29E-02,0,3.22E+09,0,1.25E+09
38,1,5.22E-06,-1.64E-04,2.88E-06,-1.64E-04,-1.32E-04,-1.63E-04,2.88E-06,-27.862,-7.6226,-25.936,3.217,-3.97E+08,5.43E+08,-3.97E+08,5.43E+08,-9.61E+07,1.35E+08,0.00E+00,1.29E-02,4.64E-06,9.88E-03,0.00E+00,1.29E-02,0,3.22E+09,1.35E+06,3.22E+09,0.00E+00,1.39E+09,-1.64E-04,2.88E-06,-2.79E+01,3.22E+00,-3.97E+08,5.43E+08,0.00E+00,1.29E-02,0,3.22E+09,0,1.15E+09
39,1,5.37E-06,-1.67E-04,2.24E-06,-1.67E-04,-1.35E-04,-1.66E-04,2.24E-06,-58.387,-20.514,-26.438,2.5433,-6.67E+08,5.35E+08,-6.67E+08,5.35E+08,-1.37E+08,1.07E+08,0.00E+00,1.29E-02,5.79E-06,9.84E-03,0.00E+00,1.29E-02,0,3.17E+09,2.19E+06,3.17E+09,0.00E+00,1.40E+09,-1.67E-04,2.24E-06,-5.84E+01,2.54E+00,-6.67E+08,5.35E+08,0.00E+00,1.29E-02,0,3.17E+09,0,1.07E+09
40,1,5.51E-06,-1.71E-04,1.73E-06,-1.71E-04,-1.38E-04,-1.69E-04,1.73E-06,-32.283,-19.232,-25.85,2.0143,-3.74E+09,4.45E+08,-3.74E+09,4.45E+08,-9.38E+07,1.22E+08,0.00E+00,1.29E-02,3.61E-06,9.86E-03,0.00E+00,1.29E-02,0,3.13E+09,4.23E+05,3.13E+09,0.00E+00,1.40E+09,-1.71E-04,1.73E-06,-3.23E+01,2.01E+00,-3.74E+09,4.45E+08,0.00E+00,1.29E-02,0,3.13E+09,0,9.92E+08
41,1,5.65E-06,-1.74E-04,5.57E-07,-1.74E-04,-1.41E-04,-1.72E-04,5.57E-07,-24.325,-11.654,-24.267,2.1043,-7.50E+08,3.43E+08,-7.50E+08,3.43E+08,-1.17E+08,1.15E+08,0.00E+00,1.29E-02,3.87E-06,1.00E-02,0.00E+00,1.29E-02,0,3.04E+09,9.19E+05,3.04E+09,0.00E+00,1.40E+09,-1.74E-04,5.57E-07,-2.43E+01,2.10E+00,-7.50E+08,3.43E+08,0.00E+00,1.29E-02,0,3.04E+09,0,9.52E+08
42,1,5.79E-06,-1.77E-04,1.42E-07,-1.77E-04,-1.44E-04,-1.75E-04,1.42E-07,-26.215,-20.211,-23.909,1.9268,-3.08E+08,5.97E+08,-3.08E+08,5.97E+08,-7.64E+07,8.77E+07,0.00E+00,1.29E-02,4.07E-06,1.00E-02,0.00E+00,1.29E-02,0,2.92E+09,1.31E+06,2.92E+09,0.00E+00,1.40E+09,-1.77E-04,1.42E-07,-2.62E+01,1.93E+00,-3.08E+08,5.97E+08,0.00E+00,1.29E-02,0,2.92E+09,0,9.17E+08
43,1,5.93E-06,-1.80E-04,1.09E-07,-1.80E-04,-1.47E-04,-1.78E-04,1.09E-07,-26.215,-18.084,-21.857,1.8399,-3.85E+08,6.99E+08,-3.85E+08,6.99E+08,-1.22E+08,7.91E+07,0.00E+00,1.29E-02,4.11E-06,9.98E-03,0.00E+00,1.29E-02,0,2.80E+09,1.13E+06,2.80E+09,0.00E+00,1.40E+09,-1.80E-04,1.09E-07,-2.62E+01,1.84E+00,-3.85E+08,6.99E+08,0.00E+00,1.29E-02,0,2.80E+09,0,8.78E+08
44,1,6.07E-06,-1.83E-04,1.40E-07,-1.83E-04,-1.50E-04,-1.81E-04,1.40E-07,-26.215,-18.288,-21.195,2.2083,-5.84E+08,3.04E+08,-5.84E+08,3.04E+08,-9.29E+07,1.24E+08,0.00E+00,1.29E-02,3.76E-06,1.01E-02,0.00E+00,1.29E-02,0,2.82E+09,1.12E+06,2.82E+09,0.00E+00,1.39E+09,-1.83E-04,1.40E-07,-2.62E+01,2.21E+00,-5.84E+08,3.04E+08,0.00E+00,1.29E-02,0,2.82E+09,0,8.45E+08
45,1,6.21E-06,-1.86E-04,1.25E-07,-1.86E-04,-1.53E-04,-1.84E-04,1.25E-07,-22.092,-17.521,-19.964,2.136,-3.54E+08,3.02E+08,-3.54E+08,3.02E+08,-8.61E+07,5.73E+07,0.00E+00,1.29E-02,5.44E-06,1.01E-02,0.00E+00,1.29E-02,0,2.80E+09,2.30E+06,2.80E+09,0.00E+00,1.39E+09,-1.86E-04,1.25E-07,-2.21E+01,2.14E+00,-3.54E+08,3.02E+08,0.00E+00,1.29E-02,0,2.80E+09,0,8.27E+08
46,1,6.36E-06,-1.89E-04,1.20E-07,-1.89E-04,-1.57E-04,-1.87E-04,1.20E-07,-30.377,-17.673,-20.109,2.4269,-3.66E+08,3.41E+08,-3.66E+08,3.41E+08,-2.01E+08,6.78E+07,0.00E+00,1.29E-02,5.61E-06,1.02E-02,0.00E+00,1.29E-02,0,2.82E+09,2.07E+06,2.82E+09,0.00E+00,1.39E+09,-1.89E-04,1.20E-07,-3.04E+01,2.43E+00,-3.66E+08,3.41E+08,0.00E+00,1.29E-02,0,2.82E+09,0,8.19E+08
47,1,6.50E-06,-1.92E-04,1.49E-07,-1.92E-04,-1.61E-04,-1.89E-04,1.49E-07,-30.377,-17.386,-19.74,1.7546,-1.75E+08,2.96E+08,-1.75E+08,2.96E+08,-6.56E+07,6.37E+07,0.00E+00,1.29E-02,5.30E-06,1.02E-02,0.00E+00,1.29E-02,0,2.83E+09,2.13E+06,2.83E+09,0.00E+00,1.39E+09,-1.92E-04,1.49E-07,-3.04E+01,1.75E+00,-1.75E+08,2.96E+08,0.00E+00,1.29E-02,0,2.83E+09,0,8.17E+08
48,1,6.64E-06,-1.94E-04,1.42E-07,-1.94E-04,-1.65E-04,-1.92E-04,1.42E-07,-30.377,-17.311,-19.853,2.1313,-3.73E+08,1.97E+08,-3.73E+08,1.97E+08,-6.03E+07,6.66E+07,0.00E+00,1.29E-02,4.87E-06,9.91E-03,0.00E+00,1.29E-02,0,2.81E+09,1.57E+06,2.81E+09,0.00E+00,1.39E+09,-1.94E-04,1.42E-07,-3.04E+01,2.13E+00,-3.73E+08,1.97E+08,0.00E+00,1.29E-02,0,2.81E+09,0,8.18E+08
49,1,6.78E-06,-1.97E-04,1.22E-07,-1.97E-04,-1.69E-04,-1.95E-04,1.22E-07,-30.377,-16.692,-18.352,1.6087,-2.47E+08,2.73E+08,-2.47E+08,2.73E+08,-7.47E+07,7.65E+07,0.00E+00,1.29E-02,4.32E-06,9.47E-03,0.00E+00,1.29E-02,0,2.77E+09,1.23E+06,2.77E+09,0.00E+00,1.39E+09,-1.97E-04,1.22E-07,-3.04E+01,1.61E+00,-2.47E+08,2.73E+08,0.00E+00,1.29E-02,0,2.77E+09,0,8.16E+08
50,1,6.92E-06,-2.00E-04,1.31E-07,-2.00E-04,-1.74E-04,-1.97E-04,1.31E-07,-30.377,-15.846,-17.751,2.0025,-6.69E+08,3.29E+08,-6.69E+08,3.29E+08,-8.88E+07,6.21E+07,0.00E+00,1.29E-02,2.54E-06,9.25E-03,0.00E+00,1.29E-02,0,2.74E+09,8.31E+05,2.74E+09,0.00E+00,1.40E+09,-2.00E-04,1.31E-07,-3.04E+01,2.00E+00,-6.69E+08,3.29E+08,0.00E+00,1.29E-02,0,2.74E+09,0,8.19E+08
51,1,7.06E-06,-2.02E-04,1.22E-07,-2.02E-04,-1.78E-04,-1.99E-04,1.22E-07,-30.377,-14.332,-16.563,1.78,-3.26E+08,3.48E+08,-3.26E+08,3.48E+08,-6.94E+07,6.71E+07,0.00E+00,1.29E-02,2.42E-06,9.26E-03,0.00E+00,1.29E-02,0,2.71E+09,5.47E+05,2.71E+09,0.00E+00,1.39E+09,-2.02E-04,1.22E-07,-3.04E+01,1.78E+00,-3.26E+08,3.48E+08,0.00E+00,1.29E-02,0,2.71E+09,0,8.18E+08
52,1,7.20E-06,-2.04E-04,1.68E-07,-2.04E-04,-1.82E-04,-2.02E-04,1.68E-07,-30.377,-14.14,-15.814,2.138,-2.61E+08,2.34E+08,-2.61E+08,2.34E+08,-2.46E+08,5.81E+07,0.00E+00,1.29E-02,4.45E-06,9.27E-03,0.00E+00,1.29E-02,0,2.68E+09,1.14E+06,2.68E+09,0.00E+00,1.39E+09,-2.04E-04,1.68E-07,-3.04E+01,2.14E+00,-2.61E+08,2.34E+08,0.00E+00,1.29E-02,0,2.68E+09,0,8.17E+08
53,1,7.34E-06,-2.06E-04,1.26E-07,-2.06E-04,-1.87E-04,-2.04E-04,1.26E-07,-30.377,-13.753,-15.117,1.5875,-1.12E+08,2.12E+08,-1.12E+08,2.12E+08,-7.61E+07,5.97E+07,0.00E+00,1.29E-02,7.73E-06,9.30E-03,0.00E+00,1.29E-02,0,2.68E+09,2.97E+06,2.68E+09,0.00E+00,1.39E+09,-2.06E-04,1.26E-07,-3.04E+01,1.59E+00,-1.12E+08,2.12E+08,0.00E+00,1.29E-02,0,2.68E+09,0,8.17E+08
54,1,7.49E-06,-2.09E-04,1.34E-07,-2.09E-04,-1.91E-04,-2.06E-04,1.34E-07,-30.377,-13.745,-16.994,1.8257,-1.16E+08,1.92E+08,-1.16E+08,1.92E+08,-4.74E+07,6.23E+07,0.00E+00,1.28E-02,6.51E-06,9.25E-03,0.00E+00,1.28E-02,0,2.60E+09,2.80E+06,2.60E+09,0.00E+00,1.39E+09,-2.09E-04,1.34E-07,-3.04E+01,1.83E+00,-1.16E+08,1.92E+08,0.00E+00,1.28E-02,0,2.60E+09,0,8.20E+08
55,1,7.63E-06,-2.11E-04,1.25E-07,-2.11E-04,-1.95E-04,-2.08E-04,1.25E-07,-30.377,-13.121,-15.448,1.4145,-1.20E+08,1.14E+08,-1.20E+08,1.14E+08,-8.65E+07,4.02E+07,0.00E+00,1.28E-02,3.59E-06,9.13E-03,0.00E+00,1.28E-02,0,2.55E+09,1.36E+06,2.55E+09,0.00E+00,1.39E+09,-2.11E-04,1.25E-07,-3.04E+01,1.41E+00,-1.20E+08,1.14E+08,0.00E+00,1.28E-02,0,2.55E+09,0,8.18E+08
56,1,7.77E-06,-2.13E-04,1.26E-07,-2.13E-04,-1.99E-04,-2.10E-04,1.26E-07,-30.377,-12.274,-14.354,1.3193,-1.10E+08,9.35E+07,-1.10E+08,9.35E+07,-4.46E+07,5.51E+07,0.00E+00,1.28E-02,3.43E-06,9.20E-03,0.00E+00,1.28E-02,0,2.52E+09,1.47E+06,2.52E+09,0.00E+00,1.39E+09,-2.13E-04,1.26E-07,-3.04E+01,1.32E+00,-1.10E+08,9.35E+07,0.00E+00,1.28E-02,0,2.52E+09,0,8.17E+08
57,1,7.91E-06,-2.14E-04,1.22E-07,-2.14E-04,-2.04E-04,-2.12E-04,1.22E-07,-30.377,-12.158,-1.33E+01,1.4425,-1.22E+08,1.43E+08,-1.22E+08,1.43E+08,-4.58E+07,3.87E+07,0.00E+00,1.28E-02,5.21E-06,9.23E-03,0.00E+00,1.28E-02,0,2.52E+09,2.29E+06,2.52E+09,0.00E+00,1.39E+09,-2.14E-04,1.22E-07,-3.04E+01,1.44E+00,-1.22E+08,1.43E+08,0.00E+00,1.28E-02,0,2.52E+09,0,8.19E+08
58,1,8.05E-06,-2.16E-04,1.20E-07,-2.16E-04,-2.08E-04,-2.13E-04,1.20E-07,-30.377,-10.489,-11.974,1.867,-1.34E+08,1.24E+08,-1.34E+08,1.24E+08,-8.00E+07,5.04E+07,0.00E+00,1.28E-02,4.89E-06,9.30E-03,0.00E+00,1.28E-02,0,2.56E+09,1.19E+06,2.56E+09,0.00E+00,1.39E+09,-2.16E-04,1.20E-07,-3.04E+01,1.87E+00,-1.34E+08,1.24E+08,0.00E+00,1.28E-02,0,2.56E+09,0,8.17E+08
59,1,8.19E-06,-2.18E-04,1.48E-07,-2.18E-04,-2.10E-04,-2.15E-04,1.48E-07,-12.522,1.1787,-11.664,1.7069,-1.01E+08,1.40E+08,-1.01E+08,1.40E+08,-5.61E+07,4.53E+07,0.00E+00,1.28E-02,3.81E-06,9.18E-03,0.00E+00,1.28E-02,0,2.53E+09,1.43E+06,2.53E+09,0.00E+00,1.39E+09,-2.18E-04,1.48E-07,-1.25E+01,1.71E+00,-1.01E+08,1.40E+08,0.00E+00,1.28E-02,0,2.53E+09,0,8.18E+08
60,1,8.33E-06,-2.20E-04,1.69E-07,-2.20E-04,-2.10E-04,-2.16E-04,1.69E-07,-12.522,1.18E+00,-10.346,1.4884,-6.57E+07,1.11E+08,-6.57E+07,1.11E+08,-5.97E+07,4.89E+07,0.00E+00,1.28E-02,2.88E-06,9.00E-03,0.00E+00,1.28E-02,0,2.49E+09,1.12E+06,2.49E+09,0.00E+00,1.39E+09,-2.20E-04,1.69E-07,-1.25E+01,1.49E+00,-6.57E+07,1.11E+08,0.00E+00,1.28E-02,0,2.49E+09,0,8.17E+08
61,1,8.47E-06,-2.21E-04,1.37E-07,-2.21E-04,-2.10E-04,-2.18E-04,1.37E-07,-10.537,1.1787,-10.511,1.5424,-6.09E+07,5.51E+07,-6.09E+07,5.51E+07,-5.20E+07,4.34E+07,0.00E+00,1.28E-02,2.32E-06,8.78E-03,0.00E+00,1.28E-02,0,2.48E+09,4.81E+05,2.48E+09,0.00E+00,1.39E+09,-2.21E-04,1.37E-07,-1.05E+01,1.54E+00,-6.09E+07,5.51E+07,0.00E+00,1.28E-02,0,2.48E+09,0,8.18E+08
62,1,8.62E-06,-2.22E-04,1.42E-07,-2.22E-04,-2.10E-04,-2.19E-04,1.42E-07,-10.076,1.1787,-9.3385,1.2955,-1.20E+08,5.77E+07,-1.20E+08,5.77E+07,-4.64E+07,3.95E+07,0.00E+00,1.28E-02,7.43E-06,8.64E-03,0.00E+00,1.28E-02,0,2.48E+09,2.60E+06,2.48E+09,0.00E+00,1.39E+09,-2.22E-04,1.42E-07,-1.01E+01,1.30E+00,-1.20E+08,5.77E+07,0.00E+00,1.28E-02,0,2.48E+09,0,8.18E+08
63,1,8.76E-06,-2.24E-04,1.21E-07,-2.24E-04,-2.09E-04,-2.21E-04,1.21E-07,-10.076,1.1787,-8.6465,1.1893,-4.00E+07,5.08E+07,-4.00E+07,5.08E+07,-3.95E+07,3.55E+07,0.00E+00,1.28E-02,4.45E-06,8.56E-03,0.00E+00,1.28E-02,0,2.46E+09,1.46E+06,2.46E+09,0.00E+00,1.38E+09,-2.24E-04,1.21E-07,-1.01E+01,1.19E+00,-4.00E+07,5.08E+07,0.00E+00,1.28E-02,0,2.46E+09,0,8.19E+08
64,1,8.90E-06,-2.25E-04,1.57E-07,-2.25E-04,-2.09E-04,-2.22E-04,1.57E-07,-8.3665,1.1787,-8.0036,1.5965,-8.38E+07,1.09E+08,-8.38E+07,1.09E+08,-4.32E+07,3.80E+07,0.00E+00,1.28E-02,4.56E-06,8.55E-03,0.00E+00,1.28E-02,0,2.47E+09,1.76E+06,2.47E+09,0.00E+00,1.39E+09,-2.25E-04,1.57E-07,-8.37E+00,1.60E+00,-8.38E+07,1.09E+08,0.00E+00,1.28E-02,0,2.47E+09,0,8.18E+08
65,1,9.04E-06,-2.26E-04,1.22E-07,-2.26E-04,-2.10E-04,-2.23E-04,1.22E-07,-28.773,-6.5921,-7.2082,1.1023,-7.11E+07,8.79E+07,-7.11E+07,8.79E+07,-4.09E+07,4.57E+07,0.00E+00,1.28E-02,5.49E-06,8.51E-03,0.00E+00,1.28E-02,0,2.48E+09,1.87E+06,2.48E+09,0.00E+00,1.39E+09,-2.26E-04,1.22E-07,-2.88E+01,1.10E+00,-7.11E+07,8.79E+07,0.00E+00,1.28E-02,0,2.48E+09,0,8.16E+08
66,1,9.18E-06,-2.27E-04,1.42E-07,-2.27E-04,-2.14E-04,-2.24E-04,1.42E-07,-28.773,-6.0432,-6.3775,1.0723,-7.09E+07,4.60E+07,-7.09E+07,4.60E+07,-2.99E+07,3.26E+07,0.00E+00,1.29E-02,5.57E-06,8.48E-03,0.00E+00,1.29E-02,0,2.52E+09,1.65E+06,2.52E+09,0.00E+00,1.39E+09,-2.27E-04,1.42E-07,-2.88E+01,1.07E+00,-7.09E+07,4.60E+07,0.00E+00,1.29E-02,0,2.52E+09,0,8.17E+08
67,1,9.32E-06,-2.28E-04,1.23E-07,-2.28E-04,-2.17E-04,-2.25E-04,1.23E-07,-28.773,-5.33,-5.9537,1.2714,-8.61E+07,3.63E+07,-8.61E+07,3.61E+07,-3.93E+07,3.63E+07,0.00E+00,1.29E-02,6.60E-06,8.46E-03,0.00E+00,1.29E-02,0,2.54E+09,1.96E+06,2.54E+09,0.00E+00,1.38E+09,-2.28E-04,1.23E-07,-2.88E+01,1.27E+00,-8.61E+07,3.63E+07,0.00E+00,1.29E-02,0,2.54E+09,0,8.20E+08
68,1,9.46E-06,-2.29E-04,1.25E-07,-2.29E-04,-2.18E-04,-2.25E-04,1.25E-07,-6.9425,8.5708,-5.9385,1.1166,-6.38E+07,3.96E+07,-3.14E+07,3.48E+07,-6.38E+07,3.96E+07,0.00E+00,1.28E-02,6.93E-06,8.46E-03,0.00E+00,1.28E-02,0,2.56E+09,1.81E+06,2.56E+09,0.00E+00,1.38E+09,-2.29E-04,1.25E-07,-6.94E+00,8.57E+00,-6.38E+07,3.96E+07,0.00E+00,1.28E-02,0,2.56E+09,0,8.18E+08
69,1,9.60E-06,-2.29E-04,1.43E-07,-2.29E-04,-2.17E-04,-2.26E-04,1.43E-07,-6.9425,8.5708,-4.8423,1.1032,-3.69E+07,1.09E+08,-1.85E+07,1.09E+08,-3.69E+07,4.55E+07,0.00E+00,1.29E-02,8.37E-06,8.45E-03,0.00E+00,1.29E-02,0,2.56E+09,2.12E+06,2.56E+09,0.00E+00,1.38E+09,-2.29E-04,1.43E-07,-6.94E+00,8.57E+00,-3.69E+07,1.09E+08,0.00E+00,1.29E-02,0,2.56E+09,0,8.18E+08
70,1,9.75E-06,-2.30E-04,1.26E-07,-2.30E-04,-2.15E-04,-2.27E-04,1.26E-07,-6.9425,8.5708,-3.8381,1.212,-4.27E+07,4.44E+07,-2.46E+07,4.44E+07,-4.27E+07,3.99E+07,0.00E+00,1.28E-02,4.50E-06,8.43E-03,0.00E+00,1.28E-02,0,2.58E+09,1.57E+06,2.58E+09,0.00E+00,1.38E+09,-2.30E-04,1.26E-07,-6.94E+00,8.57E+00,-4.27E+07,4.44E+07,0.00E+00,1.28E-02,0,2.58E+09,0,8.22E+08
71,1,9.89E-06,-2.31E-04,1.41E-07,-2.31E-04,-2.14E-04,-2.27E-04,1.41E-07,-6.9425,8.5708,-3.0368,1.0316,-6.43E+07,3.50E+07,-6.43E+07,3.50E+07,-3.39E+07,2.92E+07,0.00E+00,1.28E-02,5.82E-06,8.46E-03,0.00E+00,1.28E-02,0,2.58E+09,1.98E+06,2.58E+09,0.00E+00,1.38E+09,-2.31E-04,1.41E-07,-6.94E+00,8.57E+00,-6.43E+07,3.50E+07,0.00E+00,1.28E-02,0,2.58E+09,0,8.42E+08
72,1,1.00E-05,-2.31E-04,1.00E-07,-2.31E-04,-2.13E-04,-2.27E-04,1.00E-07,-6.9425,8.5708,-2.4885,0.86012,-4.17E+07,3.68E+07,-4.17E+07,2.94E+07,-3.11E+07,3.68E+07,0.00E+00,1.28E-02,5.67E-06,8.42E-03,0.00E+00,1.28E-02,0,2.59E+09,2.02E+06,2.59E+09,0.00E+00,1.38E+09,-2.31E-04,1.00E-07,-6.94E+00,8.57E+00,-4.17E+07,3.68E+07,0.00E+00,1.28E-02,0,2.59E+09,0,8.73E+08
73,1,1.02E-05,-2.31E-04,1.09E-07,-2.31E-04,-2.12E-04,-2.28E-04,1.09E-07,-2.7537,8.5708,-1.8128,0.91861,-3.37E+07,3.53E+07,-2.85E+07,2.44E+07,-3.37E+07,3.53E+07,0.00E+00,1.29E-02,8.18E-06,8.40E-03,0.00E+00,1.29E-02,0,2.60E+09,2.57E+06,2.60E+09,0.00E+00,1.38E+09,-2.31E-04,1.09E-07,-2.75E+00,8.57E+00,-3.37E+07,3.53E+07,0.00E+00,1.29E-02,0,2.60E+09,0,9.17E+08
74,1,1.03E-05,-2.31E-04,1.11E-07,-2.31E-04,-2.11E-04,-2.28E-04,1.11E-07,-1.4288,8.5708,-0.9378,1.3428,-3.92E+07,5.48E+07,-2.35E+07,5.48E+07,-3.92E+07,2.75E+07,0.00E+00,1.28E-02,1.00E-05,8.39E-03,0.00E+00,1.28E-02,0,2.60E+09,8.92E+05,2.60E+09,0.00E+00,1.38E+09,-2.31E-04,1.11E-07,-1.43E+00,8.57E+00,-3.92E+07,5.48E+07,0.00E+00,1.28E-02,0,2.60E+09,0,9.71E+08
75,1,1.05E-05,-2.32E-04,1.20E-07,-2.32E-04,-2.09E-04,-2.28E-04,1.20E-07,-0.77556,8.5708,-1.0527,1.3514,-2.68E+07,3.12E+07,-1.24E+07,1.94E+07,-2.68E+07,3.12E+07,0.00E+00,1.28E-02,3.83E-06,8.43E-03,0.00E+00,1.28E-02,0,2.60E+09,1.37E+06,2.60E+09,0.00E+00,1.38E+09,-2.32E-04,1.20E-07,-1.05E+00,8.57E+00,-2.68E+07,3.12E+07,0.00E+00,1.28E-02,0,2.60E+09,0,1.05E+09
76,1,1.06E-05,-2.32E-04,1.18E-07,-2.32E-04,-2.08E-04,-2.28E-04,1.18E-07,-0.38839,8.5708,-0.85502,1.5513,-3.00E+07,5.87E+07,-3.00E+07,5.87E+07,-2.94E+07,3.29E+07,0.00E+00,1.27E-02,4.02E-06,8.40E-03,0.00E+00,1.27E-02,0,2.60E+09,1.72E+06,2.60E+09,0.00E+00,1.38E+09,-2.32E-04,1.18E-07,-8.55E-01,8.57E+00,-3.00E+07,5.87E+07,0.00E+00,1.27E-02,0,2.60E+09,0,1.20E+09
77,1,1.07E-05,-2.32E-04,1.31E-07,-2.32E-04,-2.07E-04,-2.28E-04,1.31E-07,0.1804,8.5708,-0.98241,1.3248,-2.72E+07,2.98E+07,-2.57E+07,1.86E+07,-2.72E+07,2.98E+07,0.00E+00,1.27E-02,5.39E-06,8.37E-03,0.00E+00,1.27E-02,0,2.58E+09,1.26E+06,2.58E+09,0.00E+00,1.37E+09,-2.32E-04,1.31E-07,-9.82E-01,8.57E+00,-2.72E+07,2.98E+07,0.00E+00,1.27E-02,0,2.58E+09,0,1.37E+09
78,1,1.09E-05,-2.31E-04,1.25E-07,-2.31E-04,-2.06E-04,-2.28E-04,1.25E-07,0.86983,8.5708,-1.0338,1.7535,-2.98E+07,2.81E+07,-1.57E+07,1.85E+07,-2.98E+07,2.81E+07,0.00E+00,1.25E-02,5.18E-06,8.32E-03,0.00E+00,1.25E-02,0,2.57E+09,1.86E+06,2.57E+09,0.00E+00,1.36E+09,-2.31E-04,1.25E-07,-1.03E+00,8.57E+00,-2.98E+07,2.81E+07,0.00E+00,1.25E-02,0,2.57E+09,0,1.54E+09
79,1,1.10E-05,-2.31E-04,1.31E-07,-2.31E-04,-2.05E-04,-2.27E-04,1.31E-07,0.86983,8.5708,-1.1434,2.153,-3.73E+07,2.76E+07,-3.73E+07,2.68E+07,-2.54E+07,2.76E+07,0.00E+00,1.21E-02,6.74E-06,8.22E-03,0.00E+00,1.21E-02,0,2.50E+09,2.02E+06,2.50E+09,0.00E+00,1.33E+09,-2.31E-04,1.31E-07,-1.14E+00,8.57E+00,-3.73E+07,2.76E+07,0.00E+00,1.21E-02,0,2.50E+09,0,1.71E+09
80,1,1.12E-05,-2.31E-04,8.76E-08,-2.31E-04,-2.03E-04,-2.27E-04,8.76E-08,0.86983,8.5708,-0.91061,3.0659,-2.41E+07,3.06E+07,-1.24E+07,2.89E+07,-2.41E+07,3.06E+07,0.00E+00,1.19E-02,6.19E-06,8.11E-03,0.00E+00,1.19E-02,0,2.46E+09,2.09E+06,2.46E+09,0.00E+00,1.31E+09,-2.31E-04,8.76E-08,-9.11E-01,8.57E+00,-2.41E+07,3.06E+07,0.00E+00,1.19E-02,0,2.46E+09,0,1.70E+09
81,1,1.13E-05,-2.30E-04,8.26E-08,-2.30E-04,-2.02E-04,-2.27E-04,8.26E-08,0.86983,8.5708,-0.88435,3.5212,-2.46E+07,3.24E+07,-7.65E+06,3.24E+07,-2.46E+07,2.75E+07,0.00E+00,1.18E-02,5.72E-06,8.03E-03,0.00E+00,1.18E-02,0,2.41E+09,1.96E+06,2.41E+09,0.00E+00,1.29E+09,-2.30E-04,8.26E-08,-8.84E-01,8.57E+00,-2.46E+07,3.24E+07,0.00E+00,1.18E-02,0,2.41E+09,0,1.69E+09
82,1,1.14E-05,-2.30E-04,9.92E-08,-2.30E-04,-2.01E-04,-2.26E-04,9.92E-08,3.0195,8.5708,-0.81619,3.7785,-2.66E+07,3.66E+07,-1.63E+07,3.66E+07,-2.66E+07,3.00E+07,0.00E+00,1.16E-02,5.62E-06,7.94E-03,0.00E+00,1.16E-02,0,2.33E+09,1.84E+06,2.33E+09,0.00E+00,1.28E+09,-2.30E-04,9.92E-08,-8.16E-01,8.57E+00,-2.66E+07,3.66E+07,0.00E+00,1.16E-02,0,2.33E+09,0,1.68E+09
83,1,1.16E-05,-2.29E-04,1.11E-07,-2.29E-04,-2.00E-04,-2.26E-04,1.11E-07,3.0195,8.5708,-0.81198,4.2242,-4.00E+07,3.08E+07,-7.54E+06,1.86E+07,-4.00E+07,3.08E+07,0.00E+00,1.13E-02,5.00E-06,7.83E-03,0.00E+00,1.13E-02,0,2.23E+09,1.53E+06,2.23E+09,0.00E+00,1.24E+09,-2.29E-04,1.11E-07,-8.12E-01,8.57E+00,-4.00E+07,3.08E+07,0.00E+00,1.13E-02,0,2.23E+09,0,1.67E+09
84,1,1.17E-05,-2.28E-04,1.37E-07,-2.28E-04,-1.99E-04,-2.25E-04,1.37E-07,3.5315,8.5708,-0.89894,4.7457,-3.06E+07,4.84E+07,-2.91E+07,4.84E+07,-3.06E+07,2.42E+07,0.00E+00,1.11E-02,3.85E-06,7.70E-03,0.00E+00,1.11E-02,0,2.17E+09,1.47E+06,2.17E+09,0.00E+00,1.21E+09,-2.28E-04,1.37E-07,-8.99E-01,8.57E+00,-3.06E+07,4.84E+07,0.00E+00,1.11E-02,0,2.17E+09,0,1.66E+09
85,1,1.19E-05,-2.28E-04,1.07E-07,-2.28E-04,-1.97E-04,-2.25E-04,1.07E-07,4.1083,8.5708,-0.75411,5.2823,-2.86E+07,2.67E+07,-2.86E+07,1.94E+07,-2.55E+07,2.67E+07,0.00E+00,1.08E-02,2.40E-06,7.53E-03,0.00E+00,1.08E-02,0,2.12E+09,4.79E+05,2.12E+09,0.00E+00,1.18E+09,-2.28E-04,1.07E-07,-7.54E-01,8.57E+00,-2.86E+07,2.67E+07,0.00E+00,1.08E-02,0,2.12E+09,0,1.67E+09
86,1,1.20E-05,-2.27E-04,8.41E-08,-2.27E-04,-1.96E-04,-2.24E-04,8.41E-08,-7.1406,8.5708,-0.86476,5.6567,-4.04E+08,6.70E+07,-4.04E+08,6.70E+07,-3.32E+07,2.80E+07,0.00E+00,1.04E-02,3.63E-06,7.37E-03,0.00E+00,1.04E-02,0,2.06E+09,1.30E+06,2.06E+09,0.00E+00,1.15E+09,-2.27E-04,8.41E-08,-7.14E+00,8.57E+00,-4.04E+08,6.70E+07,0.00E+00,1.04E-02,0,2.06E+09,0,1.67E+09
87,1,1.21E-05,-2.26E-04,9.50E-08,-2.26E-04,-1.95E-04,-2.23E-04,9.50E-08,4.5364,8.5708,-0.78304,6.3058,-6.30E+07,3.82E+08,-6.30E+07,3.82E+08,-1.89E+07,3.23E+07,0.00E+00,1.01E-02,4.77E-06,7.21E-03,0.00E+00,1.01E-02,0,2.01E+09,1.82E+06,2.01E+09,0.00E+00,1.09E+09,-2.26E-04,9.50E-08,-7.83E-01,8.57E+00,-6.30E+07,3.82E+08,0.00E+00,1.01E-02,0,2.01E+09,0,1.67E+09
88,1,1.23E-05,-2.25E-04,9.31E-08,-2.25E-04,-1.94E-04,-2.22E-04,9.31E-08,5.2879,8.5708,-0.78854,6.438,-3.88E+07,4.04E+07,-3.88E+07,4.04E+07,-3.51E+07,3.22E+07,0.00E+00,9.76E-03,3.58E-06,7.01E-03,0.00E+00,9.76E-03,0,1.94E+09,1.12E+06,1.94E+09,0.00E+00,1.07E+09,-2.25E-04,9.31E-08,-7.89E-01,8.57E+00,-3.88E+07,4.04E+07,0.00E+00,9.76E-03,0,1.94E+09,0,1.67E+09
89,1,1.24E-05,-2.24E-04,8.38E-08,-2.24E-04,-1.92E-04,-2.22E-04,8.38E-08,5.2879,8.5708,-0.97386,6.9097,-2.75E+07,5.00E+07,-2.75E+07,4.00E+07,-2.26E+07,5.00E+07,0.00E+00,9.44E-03,3.08E-06,6.86E-03,0.00E+00,9.44E-03,0,1.89E+09,1.15E+06,1.89E+09,0.00E+00,1.02E+09,-2.24E-04,8.38E-08,-9.74E-01,8.57E+00,-2.75E+07,5.00E+07,0.00E+00,9.44E-03,0,1.89E+09,0,1.67E+09
90,1,1.26E-05,-2.23E-04,9.45E-08,-2.23E-04,-1.91E-04,-2.21E-04,9.45E-08,5.2879,8.608,-0.91053,6.999,-5.29E+07,6.79E+07,-2.57E+07,6.79E+07,-5.29E+07,3.74E+07,0.00E+00,8.99E-03,1.18E-06,6.76E-03,0.00E+00,8.99E-03,0,1.83E+09,3.27E+05,1.83E+09,0.00E+00,9.71E+08,-2.23E-04,9.45E-08,-9.11E-01,8.61E+00,-5.29E+07,6.79E+07,0.00E+00,8.99E-03,0,1.83E+09,0,1.67E+09
91,1,1.27E-05,-2.21E-04,1.12E-07,-2.21E-04,-1.90E-04,-2.20E-04,1.12E-07,6.4957,8.9424,-0.74856,7.3863,-2.96E+07,5.58E+07,-2.83E+07,5.58E+07,-2.96E+07,3.51E+07,0.00E+00,8.70E-03,1.83E-06,6.62E-03,0.00E+00,8.70E-03,0,1.76E+09,5.96E+05,1.76E+09,0.00E+00,9.41E+08,-2.21E-04,1.12E-07,-7.49E-01,8.94E+00,-2.96E+07,5.58E+07,0.00E+00,8.70E-03,0,1.76E+09,0,1.67E+09
92,1,1.29E-05,-2.20E-04,8.84E-08,-2.20E-04,-1.89E-04,-2.19E-04,8.84E-08,6.4957,9.2479,-0.95512,7.6419,-1.12E+08,4.43E+07,-1.12E+08,4.43E+07,-3.79E+07,2.55E+07,0.00E+00,8.41E-03,1.82E-06,6.43E-03,0.00E+00,8.41E-03,0,1.68E+09,6.43E+05,1.68E+09,0.00E+00,8.93E+08,-2.20E-04,8.84E-08,-9.55E-01,9.25E+00,-1.12E+08,4.43E+07,0.00E+00,8.41E-03,0,1.68E+09,0,1.67E+09
93,1,1.30E-05,-2.19E-04,3.50E-07,-2.19E-04,-1.88E-04,-2.18E-04,3.50E-07,6.4957,9.4362,-0.71815,8.3905,-4.40E+07,5.49E+07,-4.40E+07,5.49E+07,-4.23E+07,2.80E+07,0.00E+00,8.32E-03,1.25E-06,6.19E-03,0.00E+00,8.32E-03,0,1.61E+09,4.36E+05,1.61E+09,0.00E+00,8.47E+08,-2.19E-04,3.50E-07,-7.18E-01,9.44E+00,-4.40E+07,5.49E+07,0.00E+00,8.32E-03,0,1.61E+09,0,1.67E+09
94,1,1.31E-05,-2.18E-04,6.90E-07,-2.18E-04,-1.86E-04,-2.17E-04,6.90E-07,6.4957,9.5802,-1.0913,7.6964,-6.54E+07,4.74E+07,-4.65E+07,4.04E+07,-6.54E+07,4.74E+07,0.00E+00,8.84E-03,7.99E-07,5.94E-03,0.00E+00,8.84E-03,0,1.55E+09,2.75E+05,1.55E+09,0.00E+00,8.03E+08,-2.18E-04,6.90E-07,-1.09E+00,9.58E+00,-6.54E+07,4.74E+07,0.00E+00,8.84E-03,0,1.55E+09,0,1.67E+09
95,1,1.33E-05,-2.16E-04,1.01E-06,-2.16E-04,-1.85E-04,-2.16E-04,1.01E-06,6.4957,9.7885,-0.82825,8.6682,-9.48E+07,4.42E+07,-9.48E+07,4.35E+07,-4.88E+07,4.42E+07,0.00E+00,9.02E-03,1.31E-06,5.54E-03,0.00E+00,9.02E-03,0,1.54E+09,3.95E+05,1.54E+09,0.00E+00,7.92E+08,-2.16E-04,1.01E-06,-8.28E-01,9.79E+00,-9.48E+07,4.42E+07,0.00E+00,9.02E-03,0,1.54E+09,0,1.66E+09
96,1,1.34E-05,-2.15E-04,1.45E-06,-2.15E-04,-1.84E-04,-2.15E-04,1.45E-06,6.8764,9.8562,-6.91E-01,8.8571,-9.00E+07,1.60E+08,-4.17E+07,1.60E+08,-9.00E+07,4.63E+07,0.00E+00,8.98E-03,1.15E-06,5.15E-03,0.00E+00,8.98E-03,0,1.56E+09,3.69E+05,1.56E+09,0.00E+00,7.47E+08,-2.15E-04,1.45E-06,-6.91E-01,9.86E+00,-9.00E+07,1.60E+08,0.00E+00,8.98E-03,0,1.56E+09,0,1.64E+09
97,1,1.36E-05,-2.14E-04,1.80E-06,-2.14E-04,-1.83E-04,-2.13E-04,1.80E-06,6.8764,9.7965,-0.79407,9.001,-1.12E+08,5.93E+07,-1.12E+08,5.93E+07,-7.96E+07,3.21E+07,0.00E+00,8.97E-03,1.13E-06,4.79E-03,0.00E+00,8.97E-03,0,1.59E+09,2.77E+05,1.59E+09,0.00E+00,7.53E+08,-2.14E-04,1.80E-06,-7.94E-01,9.80E+00,-1.12E+08,5.93E+07,0.00E+00,8.97E-03,0,1.59E+09,0,1.60E+09
98,1,1.37E-05,-2.13E-04,2.08E-06,-2.13E-04,-1.82E-04,-2.12E-04,2.08E-06,6.8764,9.8621,-0.87247,9.5563,-6.53E+07,1.39E+08,-5.70E+07,1.39E+08,-6.53E+07,5.69E+07,0.00E+00,8.89E-03,9.67E-07,5.22E-03,0.00E+00,8.89E-03,0,1.93E+09,1.14E+05,1.93E+09,0.00E+00,7.56E+08,-2.13E-04,2.08E-06,-8.72E-01,9.86E+00,-6.53E+07,1.39E+08,0.00E+00,8.89E-03,0,1.93E+09,0,1.58E+09
99,1,1.38E-05,-2.11E-04,2.29E-06,-2.11E-04,-1.80E-04,-2.11E-04,2.29E-06,6.5297,9.757,-1.5872,7.1898,-8.42E+07,1.42E+08,-8.42E+07,1.42E+08,-4.08E+07,7.12E+07,0.00E+00,8.81E-03,1.38E-06,5.77E-03,0.00E+00,8.81E-03,0,2.21E+09,3.08E+05,2.21E+09,0.00E+00,7.68E+08,-2.11E-04,2.29E-06,-1.59E+00,9.76E+00,-8.42E+07,1.42E+08,0.00E+00,8.81E-03,0,2.21E+09,0,1.55E+09
100,1,1.40E-05,-2.11E-04,2.31E-06,-2.10E-04,-1.79E-04,-2.11E-04,2.31E-06,6.88E+00,9.9101,-2.3882,1.086,-9.04E+07,7.93E+07,-9.04E+07,7.93E+07,-8.82E+07,3.44E+07,0.00E+00,8.80E-03,9.16E-07,5.70E-03,0.00E+00,8.80E-03,0,2.19E+09,1.80E+05,2.19E+09,0.00E+00,7.48E+08,-2.11E-04,2.31E-06,-2.39E+00,9.91E+00,-9.04E+07,7.93E+07,0.00E+00,8.80E-03,0,2.19E+09,0,1.50E+09
101,1,1.41E-05,-2.11E-04,2.16E-06,-2.09E-04,-1.78E-04,-2.11E-04,2.16E-06,6.88E+00,9.8389,-3.1788,0.71068,-6.66E+07,6.95E+07,-6.66E+07,6.95E+07,-4.08E+07,4.02E+07,0.00E+00,8.78E-03,1.06E-06,5.70E-03,0.00E+00,8.78E-03,0,2.19E+09,2.77E+05,2.19E+09,0.00E+00,7.64E+08,-2.11E-04,2.16E-06,-3.18E+00,9.84E+00,-6.66E+07,6.95E+07,0.00E+00,8.78E-03,0,2.19E+09,0,1.43E+09
102,1,1.43E-05,-2.11E-04,1.96E-06,-2.07E-04,-1.77E-04,-2.11E-04,1.96E-06,6.88E+00,9.8224,-2.6809,0.79535,-3.91E+07,6.27E+07,-3.20E+07,6.27E+07,-3.91E+07,4.43E+07,0.00E+00,8.80E-03,8.80E-07,5.69E-03,0.00E+00,8.80E-03,0,2.18E+09,1.21E+05,2.18E+09,0.00E+00,7.52E+08,-2.11E-04,1.96E-06,-2.68E+00,9.82E+00,-3.91E+07,6.27E+07,0.00E+00,8.80E-03,0,2.18E+09,0,1.34E+09
103,1,1.44E-05,-2.11E-04,1.89E-06,-2.06E-04,-1.76E-04,-2.11E-04,1.89E-06,6.88E+00,9.8717,-1.6172,1.563,-4.61E+07,4.27E+07,-4.61E+07,3.89E+07,-2.12E+07,4.27E+07,0.00E+00,8.80E-03,1.02E-06,5.70E-03,0.00E+00,8.80E-03,0,2.19E+09,3.16E+05,2.19E+09,0.00E+00,7.47E+08,-2.11E-04,1.89E-06,-1.62E+00,9.87E+00,-4.61E+07,4.27E+07,0.00E+00,8.80E-03,0,2.19E+09,0,1.26E+09
104,1,1.45E-05,-2.11E-04,2.00E-06,-2.05E-04,-1.74E-04,-2.11E-04,2.00E-06,6.8764,9.8509,-0.76053,2.1515,-5.92E+07,3.21E+07,-5.92E+07,3.16E+07,-2.71E+07,3.21E+07,0.00E+00,8.74E-03,9.97E-07,5.69E-03,0.00E+00,8.74E-03,0,2.19E+09,2.21E+05,2.19E+09,0.00E+00,7.38E+08,-2.11E-04,2.00E-06,-7.61E-01,9.85E+00,-5.92E+07,3.21E+07,0.00E+00,8.74E-03,0,2.19E+09,0,1.20E+09
105,1,1.47E-05,-2.11E-04,2.17E-06,-2.03E-04,-1.73E-04,-2.11E-04,2.17E-06,6.8764,9.7803,-0.65785,2.8578,-3.86E+07,3.22E+07,-3.86E+07,2.70E+07,-3.07E+07,3.22E+07,0.00E+00,8.83E-03,1.03E-06,5.70E-03,0.00E+00,8.83E-03,0,2.19E+09,2.65E+05,2.19E+09,0.00E+00,7.52E+08,-2.11E-04,2.17E-06,-6.58E-01,9.78E+00,-3.86E+07,3.22E+07,0.00E+00,8.83E-03,0,2.19E+09,0,1.12E+09
106,1,1.48E-05,-2.11E-04,2.29E-06,-2.02E-04,-1.72E-04,-2.11E-04,2.29E-06,6.8764,9.7661,-0.80026,2.0267,-3.78E+07,3.95E+07,-2.00E+07,3.95E+07,-3.78E+07,2.01E+07,0.00E+00,8.82E-03,8.44E-07,5.70E-03,0.00E+00,8.82E-03,0,2.19E+09,2.43E+05,2.19E+09,0.00E+00,7.53E+08,-2.11E-04,2.29E-06,-8.00E-01,9.77E+00,-3.78E+07,3.95E+07,0.00E+00,8.82E-03,0,2.19E+09,0,1.04E+09
107,1,1.50E-05,-2.11E-04,2.31E-06,-2.01E-04,-1.71E-04,-2.11E-04,2.31E-06,6.8764,9.8392,-2.1019,0.91538,-4.67E+07,2.87E+07,-2.40E+07,2.87E+07,-4.67E+07,2.25E+07,0.00E+00,8.87E-03,9.11E-07,5.70E-03,0.00E+00,8.87E-03,0,2.19E+09,1.60E+05,2.19E+09,0.00E+00,7.38E+08,-2.11E-04,2.31E-06,-2.10E+00,9.84E+00,-4.67E+07,2.87E+07,0.00E+00,8.87E-03,0,2.19E+09,0,1.01E+09
108,1,1.51E-05,-2.11E-04,2.15E-06,-1.99E-04,-1.69E-04,-2.11E-04,2.15E-06,6.8764,9.9054,-3.5223,0.64891,-4.21E+07,2.87E+07,-4.21E+07,1.70E+07,-2.51E+07,2.87E+07,0.00E+00,8.79E-03,7.01E-07,5.70E-03,0.00E+00,8.79E-03,0,2.19E+09,1.70E+05,2.19E+09,0.00E+00,7.55E+08,-2.11E-04,2.15E-06,-3.52E+00,9.91E+00,-4.21E+07,2.87E+07,0.00E+00,8.79E-03,0,2.19E+09,0,9.68E+08
109,1,1.53E-05,-2.11E-04,1.93E-06,-1.98E-04,-1.68E-04,-2.11E-04,1.93E-06,6.8764,9.8122,-1.9981,0.94795,-3.44E+07,3.27E+07,-2.01E+07,1.97E+07,-3.44E+07,3.27E+07,0.00E+00,8.79E-03,8.63E-07,5.70E-03,0.00E+00,8.79E-03,0,2.19E+09,2.18E+05,2.19E+09,0.00E+00,7.62E+08,-2.11E-04,1.93E-06,-2.00E+00,9.81E+00,-3.44E+07,3.27E+07,0.00E+00,8.79E-03,0,2.19E+09,0,9.37E+08
110,1,1.54E-05,-2.11E-04,1.86E-06,-1.97E-04,-1.67E-04,-2.11E-04,1.86E-06,6.8764,9.9146,-1.2921,1.4063,-2.38E+07,3.58E+07,-1.46E+07,2.51E+07,-2.38E+07,3.58E+07,0.00E+00,8.79E-03,6.41E-07,5.70E-03,0.00E+00,8.79E-03,0,2.19E+09,1.96E+05,2.19E+09,0.00E+00,7.52E+08,-2.11E-04,1.86E-06,-1.29E+00,9.91E+00,-2.38E+07,3.58E+07,0.00E+00,8.79E-03,0,2.19E+09,0,9.13E+08
111,1,1.55E-05,-2.11E-04,2.02E-06,-1.96E-04,-1.66E-04,-2.11E-04,2.02E-06,6.8764,9.8165,-0.50108,1.7134,-2.75E+07,2.66E+07,-1.59E+07,1.12E+07,-2.75E+07,2.66E+07,0.00E+00,8.83E-03,7.90E-07,5.70E-03,0.00E+00,8.83E-03,0,2.19E+09,1.63E+05,2.19E+09,0.00E+00,7.47E+08,-2.11E-04,2.02E-06,-5.01E-01,9.82E+00,-2.75E+07,2.66E+07,0.00E+00,8.83E-03,0,2.19E+09,0,8.97E+08
112,1,1.57E-05,-2.11E-04,2.21E-06,-1.94E-04,-1.65E-04,-2.11E-04,2.21E-06,6.8764,9.7973,-0.83165,2.1532,-2.47E+07,2.46E+07,-2.24E+07,1.38E+07,-2.47E+07,2.46E+07,0.00E+00,8.79E-03,1.11E-06,5.70E-03,0.00E+00,8.79E-03,0,2.19E+09,1.29E+05,2.19E+09,0.00E+00,7.54E+08,-2.11E-04,2.21E-06,-8.32E-01,9.80E+00,-2.47E+07,2.46E+07,0.00E+00,8.79E-03,0,2.19E+09,0,8.78E+08
113,1,1.58E-05,-2.11E-04,2.27E-06,-1.93E-04,-1.63E-04,-2.11E-04,2.27E-06,6.8764,9.7998,-0.771,1.295,-3.49E+07,2.27E+07,-1.17E+07,1.92E+07,-3.49E+07,2.27E+07,0.00E+00,8.84E-03,5.74E-07,5.70E-03,0.00E+00,8.84E-03,0,2.19E+09,1.11E+05,2.19E+09,0.00E+00,7.55E+08,-2.11E-04,2.27E-06,-7.71E-01,9.80E+00,-3.49E+07,2.27E+07,0.00E+00,8.84E-03,0,2.19E+09,0,8.56E+08
114,1,1.60E-05,-2.11E-04,2.22E-06,-1.92E-04,-1.62E-04,-2.11E-04,2.22E-06,6.8764,9.7714,-1.6361,0.88423,-4.50E+07,2.14E+07,-9.67E+06,2.01E+07,-4.50E+07,2.14E+07,0.00E+00,8.82E-03,1.19E-06,5.70E-03,0.00E+00,8.82E-03,0,2.19E+09,3.02E+05,2.19E+09,0.00E+00,7.44E+08,-2.11E-04,2.22E-06,-1.64E+00,9.77E+00,-4.50E+07,2.14E+07,0.00E+00,8.82E-03,0,2.19E+09,0,8.40E+08
115,1,1.61E-05,-2.11E-04,2.13E-06,-1.91E-04,-1.61E-04,-2.11E-04,2.13E-06,6.8764,9.7816,-2.0777,0.68574,-2.26E+07,2.37E+07,-2.26E+07,7.46E+06,-2.00E+07,2.37E+07,0.00E+00,8.82E-03,8.24E-07,5.70E-03,0.00E+00,8.82E-03,0,2.19E+09,2.72E+05,2.19E+09,0.00E+00,7.43E+08,-2.11E-04,2.13E-06,-2.08E+00,9.78E+00,-2.26E+07,2.37E+07,0.00E+00,8.82E-03,0,2.19E+09,0,8.28E+08
116,1,1.62E-05,-2.11E-04,2.00E-06,-1.90E-04,-1.60E-04,-2.11E-04,2.00E-06,6.8764,9.8694,-1.4794,0.79243,-2.53E+07,3.17E+07,-1.31E+07,8.69E+06,-2.53E+07,3.17E+07,0.00E+00,8.78E-03,1.20E-06,5.70E-03,0.00E+00,8.78E-03,0,2.19E+09,3.55E+05,2.19E+09,0.00E+00,7.50E+08,-2.11E-04,2.00E-06,-1.48E+00,9.87E+00,-2.53E+07,3.17E+07,0.00E+00,8.78E-03,0,2.19E+09,0,8.21E+08
117,1,1.64E-05,-2.11E-04,1.94E-06,-1.89E-04,-1.59E-04,-2.11E-04,1.94E-06,6.8764,9.9107,-0.80169,1.1979,-3.07E+07,2.99E+07,-1.35E+07,1.92E+07,-3.07E+07,2.99E+07,0.00E+00,8.81E-03,1.00E-06,5.70E-03,0.00E+00,8.81E-03,0,2.19E+09,2.00E+05,2.19E+09,0.00E+00,7.50E+08,-2.11E-04,1.94E-06,-8.02E-01,9.91E+00,-3.07E+07,2.99E+07,0.00E+00,8.81E-03,0,2.19E+09,0,8.07E+08
118,1,1.65E-05,-2.11E-04,2.03E-06,-1.88E-04,-1.57E-04,-2.11E-04,2.03E-06,6.8764,9.8159,-0.81863,1.5468,-2.98E+07,2.70E+07,-1.07E+07,9.80E+06,-2.98E+07,2.70E+07,0.00E+00,8.82E-03,8.41E-07,5.70E-03,0.00E+00,8.82E-03,0,2.18E+09,2.18E+05,2.18E+09,0.00E+00,7.44E+08,-2.11E-04,2.03E-06,-8.19E-01,9.82E+00,-2.98E+07,2.70E+07,0.00E+00,8.82E-03,0,2.18E+09,0,8.05E+08
119,1,1.67E-05,-2.11E-04,2.18E-06,-1.87E-04,-1.56E-04,-2.11E-04,2.18E-06,6.8764,9.7231,-0.69914,1.8281,-2.57E+07,2.66E+07,-1.72E+07,9.48E+06,-2.57E+07,2.66E+07,0.00E+00,8.79E-03,8.22E-07,5.70E-03,0.00E+00,8.79E-03,0,2.19E+09,1.68E+05,2.19E+09,0.00E+00,7.56E+08,-2.11E-04,2.18E-06,-6.99E-01,9.72E+00,-2.57E+07,2.66E+07,0.00E+00,8.79E-03,0,2.19E+09,0,8.06E+08
120,1,1.68E-05,-2.11E-04,2.22E-06,-1.86E-04,-1.55E-04,-2.11E-04,2.22E-06,6.8764,9.7271,-0.74632,1.1127,-3.17E+07,1.94E+07,-5.83E+06,6.82E+06,-3.17E+07,1.94E+07,0.00E+00,8.80E-03,6.27E-07,5.70E-03,0.00E+00,8.80E-03,0,2.19E+09,1.91E+05,2.19E+09,0.00E+00,7.50E+08,-2.11E-04,2.22E-06,-7.46E-01,9.73E+00,-3.17E+07,1.94E+07,0.00E+00,8.80E-03,0,2.19E+09,0,8.07E+08
121,1,1.70E-05,-2.11E-04,2.17E-06,-1.85E-04,-1.54E-04,-2.11E-04,2.17E-06,6.8764,9.7347,-1.5983,0.97667,-2.98E+07,2.14E+07,-7.36E+06,1.65E+07,-2.98E+07,2.14E+07,0.00E+00,8.82E-03,1.02E-06,5.70E-03,0.00E+00,8.82E-03,0,2.19E+09,2.71E+05,2.19E+09,0.00E+00,7.49E+08,-2.11E-04,2.17E-06,-1.60E+00,9.73E+00,-2.98E+07,2.14E+07,0.00E+00,8.82E-03,0,2.19E+09,0,8.05E+08
122,1,1.71E-05,-2.11E-04,2.11E-06,-1.84E-04,-1.53E-04,-2.11E-04,2.11E-06,6.8764,9.8324,-1.8858,0.74362,-2.77E+07,2.88E+07,-5.50E+06,6.16E+06,-2.77E+07,2.88E+07,0.00E+00,8.78E-03,1.00E-06,5.70E-03,0.00E+00,8.78E-03,0,2.19E+09,1.62E+05,2.19E+09,0.00E+00,7.51E+08,-2.11E-04,2.11E-06,-1.89E+00,9.83E+00,-2.77E+07,2.88E+07,0.00E+00,8.78E-03,0,2.19E+09,0,7.99E+08
123,1,1.72E-05,-2.11E-04,2.04E-06,-1.83E-04,-1.51E-04,-2.11E-04,2.04E-06,6.8764,9.8147,-1.2315,0.75562,-2.07E+07,3.13E+07,-1.35E+07,9.23E+06,-2.07E+07,3.13E+07,0.00E+00,8.78E-03,1.09E-06,5.70E-03,0.00E+00,8.78E-03,0,2.19E+09,2.35E+05,2.19E+09,0.00E+00,7.62E+08,-2.11E-04,2.04E-06,-1.23E+00,9.81E+00,-2.07E+07,3.13E+07,0.00E+00,8.78E-03,0,2.19E+09,0,8.03E+08
124,1,1.74E-05,-2.11E-04,2.01E-06,-1.82E-04,-1.50E-04,-2.11E-04,2.01E-06,6.8764,9.8502,-1.1862,1.4537,-2.38E+07,1.98E+07,-6.40E+06,6.53E+06,-2.38E+07,1.98E+07,0.00E+00,8.82E-03,9.11E-07,5.70E-03,0.00E+00,8.82E-03,0,2.19E+09,1.30E+05,2.19E+09,0.00E+00,7.55E+08,-2.11E-04,2.01E-06,-1.19E+00,9.85E+00,-2.38E+07,1.98E+07,0.00E+00,8.82E-03,0,2.19E+09,0,8.03E+08
125,1,1.75E-05,-2.11E-04,2.08E-06,-1.81E-04,-1.49E-04,-2.11E-04,2.08E-06,6.8764,9.7891,-0.70171,1.314,-3.01E+07,1.88E+07,-5.86E+06,8.89E+06,-3.01E+07,1.88E+07,0.00E+00,8.81E-03,6.47E-07,5.70E-03,0.00E+00,8.81E-03,0,2.19E+09,1.28E+05,2.19E+09,0.00E+00,7.50E+08,-2.11E-04,2.08E-06,-7.02E-01,9.79E+00,-3.01E+07,1.88E+07,0.00E+00,8.81E-03,0,2.19E+09,0,8.06E+08
126,1,1.77E-05,-2.11E-04,2.16E-06,-1.80E-04,-1.48E-04,-2.11E-04,2.16E-06,6.8764,9.8056,-0.60261,1.55E+00,-2.02E+07,1.74E+07,-5.40E+06,4.90E+06,-2.02E+07,1.74E+07,0.00E+00,8.81E-03,6.84E-07,5.70E-03,0.00E+00,8.81E-03,0,2.18E+09,1.29E+05,2.18E+09,0.00E+00,7.50E+08,-2.11E-04,2.16E-06,-6.03E-01,9.81E+00,-2.02E+07,1.74E+07,0.00E+00,8.81E-03,0,2.18E+09,0,8.05E+08
127,1,1.78E-05,-2.11E-04,2.15E-06,-1.79E-04,-1.46E-04,-2.11E-04,2.15E-06,6.8764,9.7574,-1.0466,0.8611,-2.84E+07,2.79E+07,-9.20E+06,6.61E+06,-2.84E+07,2.79E+07,0.00E+00,8.83E-03,6.65E-07,5.70E-03,0.00E+00,8.83E-03,0,2.19E+09,1.36E+05,2.19E+09,0.00E+00,7.53E+08,-2.11E-04,2.15E-06,-1.05E+00,9.76E+00,-2.84E+07,2.79E+07,0.00E+00,8.83E-03,0,2.19E+09,0,8.09E+08
128,1,1.79E-05,-2.11E-04,2.13E-06,-1.78E-04,-1.45E-04,-2.11E-04,2.13E-06,6.8764,9.7542,-1.1822,0.71152,-2.41E+07,1.75E+07,-6.28E+06,7.29E+06,-2.41E+07,1.75E+07,0.00E+00,8.82E-03,7.03E-07,5.70E-03,0.00E+00,8.82E-03,0,2.19E+09,2.20E+05,2.19E+09,0.00E+00,7.43E+08,-2.11E-04,2.13E-06,-1.18E+00,9.75E+00,-2.41E+07,1.75E+07,0.00E+00,8.82E-03,0,2.19E+09,0,8.16E+08
129,1,1.81E-05,-2.11E-04,2.10E-06,-1.77E-04,-1.44E-04,-2.11E-04,2.10E-06,6.8764,9.7181,-1.439,0.956,-1.89E+07,2.37E+07,-5.04E+06,4.90E+06,-1.89E+07,2.37E+07,0.00E+00,8.79E-03,7.64E-07,5.70E-03,0.00E+00,8.79E-03,0,2.19E+09,78821,2.19E+09,0.00E+00,7.40E+08,-2.11E-04,2.10E-06,-1.44E+00,9.72E+00,-1.89E+07,2.37E+07,0.00E+00,8.79E-03,0,2.19E+09,0,8.26E+08
130,1,1.82E-05,-2.11E-04,2.07E-06,-1.76E-04,-1.43E-04,-2.11E-04,2.07E-06,6.8764,9.7764,-1.2234,1.6998,-1.78E+07,2.03E+07,-9.19E+06,5.22E+06,-1.78E+07,2.03E+07,0.00E+00,8.78E-03,6.92E-07,5.70E-03,0.00E+00,8.78E-03,0,2.19E+09,2.22E+05,2.19E+09,0.00E+00,7.49E+08,-2.11E-04,2.07E-06,-1.22E+00,9.78E+00,-1.78E+07,2.03E+07,0.00E+00,8.78E-03,0,2.19E+09,0,8.35E+08
131,1,1.84E-05,-2.11E-04,2.08E-06,-1.75E-04,-1.42E-04,-2.11E-04,2.08E-06,6.8764,9.8103,-0.83871,1.2261,-3.23E+07,1.62E+07,-3.52E+06,4.81E+06,-3.23E+07,1.62E+07,0.00E+00,8.83E-03,1.10E-06,5.70E-03,0.00E+00,8.83E-03,0,2.19E+09,2.39E+05,2.19E+09,0.00E+00,7.62E+08,-2.11E-04,2.08E-06,-8.39E-01,9.81E+00,-3.23E+07,1.62E+07,0.00E+00,8.83E-03,0,2.19E+09,0,8.46E+08
132,1,1.85E-05,-2.11E-04,2.13E-06,-1.74E-04,-1.40E-04,-2.11E-04,2.13E-06,6.8764,9.854,-0.81737,0.91693,-2.59E+07,2.38E+07,-3.70E+06,8.02E+06,-2.59E+07,2.38E+07,0.00E+00,8.81E-03,7.18E-07,5.70E-03,0.00E+00,8.81E-03,0,2.19E+09,1.89E+05,2.19E+09,0.00E+00,7.55E+08,-2.11E-04,2.13E-06,-8.17E-01,9.85E+00,-2.59E+07,2.38E+07,0.00E+00,8.81E-03,0,2.19E+09,0,8.62E+08
133,1,1.86E-05,-2.11E-04,2.17E-06,-1.73E-04,-1.39E-04,-2.11E-04,2.17E-06,6.8764,9.8295,-1.0888,1.6941,-2.45E+07,2.12E+07,-3.59E+06,4.13E+06,-2.45E+07,2.12E+07,0.00E+00,8.79E-03,6.00E-07,5.70E-03,0.00E+00,8.79E-03,0,2.19E+09,1.73E+05,2.19E+09,0.00E+00,7.54E+08,-2.11E-04,2.17E-06,-1.09E+00,9.83E+00,-2.45E+07,2.12E+07,0.00E+00,8.79E-03,0,2.19E+09,0,8.77E+08
134,1,1.88E-05,-2.11E-04,2.12E-06,-1.72E-04,-1.38E-04,-2.11E-04,2.12E-06,6.8764,9.7245,-1.0639,0.74298,-1.80E+07,2.05E+07,-4.60E+06,4.33E+06,-1.80E+07,2.05E+07,0.00E+00,8.81E-03,8.32E-07,5.70E-03,0.00E+00,8.81E-03,0,2.19E+09,2.55E+05,2.19E+09,0.00E+00,7.59E+08,-2.11E-04,2.12E-06,-1.06E+00,9.72E+00,-1.80E+07,2.05E+07,0.00E+00,8.81E-03,0,2.19E+09,0,8.90E+08
135,1,1.89E-05,-2.11E-04,2.05E-06,-1.71E-04,-1.37E-04,-2.11E-04,2.05E-06,6.8764,9.7591,-1.3583,0.80655,-2.67E+07,3.22E+07,-6.09E+06,4.69E+06,-2.67E+07,3.22E+07,0.00E+00,8.80E-03,5.74E-07,5.70E-03,0.00E+00,8.80E-03,0,2.19E+09,1.12E+05,2.19E+09,0.00E+00,7.50E+08,-2.11E-04,2.05E-06,-1.36E+00,9.76E+00,-2.67E+07,3.22E+07,0.00E+00,8.80E-03,0,2.19E+09,0,9.03E+08
136,1,1.91E-05,-2.11E-04,2.03E-06,-1.70E-04,-1.36E-04,-2.11E-04,2.03E-06,6.8764,9.713,-1.1113,0.76772,-1.97E+07,1.98E+07,-4.83E+06,3.97E+06,-1.97E+07,1.98E+07,0.00E+00,8.81E-03,8.49E-07,5.70E-03,0.00E+00,8.81E-03,0,2.19E+09,2.29E+05,2.19E+09,0.00E+00,7.46E+08,-2.11E-04,2.03E-06,-1.11E+00,9.71E+00,-1.97E+07,1.98E+07,0.00E+00,8.81E-03,0,2.19E+09,0,9.22E+08
137,1,1.92E-05,-2.11E-04,2.09E-06,-1.69E-04,-1.34E-04,-2.11E-04,2.09E-06,6.8764,9.7939,-0.61204,1.1588,-2.29E+07,2.47E+07,-3.15E+06,4.68E+06,-2.29E+07,2.47E+07,0.00E+00,8.81E-03,7.70E-07,5.70E-03,0.00E+00,8.81E-03,0,2.19E+09,2.06E+05,2.19E+09,0.00E+00,7.43E+08,-2.11E-04,2.09E-06,-6.12E-01,9.79E+00,-2.29E+07,2.47E+07,0.00E+00,8.81E-03,0,2.19E+09,0,9.39E+08
138,1,1.94E-05,-2.11E-04,2.14E-06,-1.68E-04,-1.33E-04,-2.11E-04,2.14E-06,6.8764,9.8078,-0.62693,1.4469,-1.88E+07,1.27E+07,-3.84E+06,4.15E+06,-1.88E+07,1.27E+07,0.00E+00,8.81E-03,6.48E-07,5.70E-03,0.00E+00,8.81E-03,0,2.19E+09,2.04E+05,2.19E+09,0.00E+00,7.46E+08,-2.11E-04,2.14E-06,-6.27E-01,9.81E+00,-1.88E+07,1.27E+07,0.00E+00,8.81E-03,0,2.19E+09,0,9.66E+08
139,1,1.95E-05,-2.11E-04,2.21E-06,-1.67E-04,-1.32E-04,-2.11E-04,2.21E-06,6.8764,9.7878,-0.80168,0.83877,-2.53E+07,1.59E+07,-3.00E+06,4.13E+06,-2.53E+07,1.59E+07,0.00E+00,8.80E-03,1.11E-06,5.70E-03,0.00E+00,8.80E-03,0,2.18E+09,2.13E+05,2.18E+09,0.00E+00,7.48E+08,-2.11E-04,2.21E-06,-8.02E-01,9.79E+00,-2.53E+07,1.59E+07,0.00E+00,8.80E-03,0,2.18E+09,0,9.90E+08
140,1,1.96E-05,-2.11E-04,2.17E-06,-1.66E-04,-1.31E-04,-2.11E-04,2.17E-06,6.8764,9.7381,-1.4361,0.71014,-2.10E+07,1.76E+07,-3.38E+06,3.57E+06,-2.10E+07,1.76E+07,0.00E+00,8.80E-03,6.31E-07,5.70E-03,0.00E+00,8.80E-03,0,2.19E+09,1.61E+05,2.19E+09,0.00E+00,7.53E+08,-2.11E-04,2.17E-06,-1.44E+00,9.74E+00,-2.10E+07,1.76E+07,0.00E+00,8.80E-03,0,2.19E+09,0,1.01E+09
141,1,1.98E-05,-2.11E-04,2.07E-06,-1.65E-04,-1.30E-04,-2.11E-04,2.07E-06,6.8764,9.7628,-1.644,0.60948,-1.98E+07,2.20E+07,-4.92E+06,4.02E+06,-1.98E+07,2.20E+07,0.00E+00,8.79E-03,9.46E-07,5.70E-03,0.00E+00,8.79E-03,0,2.19E+09,1.91E+05,2.19E+09,0.00E+00,7.51E+08,-2.11E-04,2.07E-06,-1.64E+00,9.76E+00,-1.98E+07,2.20E+07,0.00E+00,8.79E-03,0,2.19E+09,0,1.02E+09
142,1,1.99E-05,-2.11E-04,2.00E-06,-1.64E-04,-1.28E-04,-2.11E-04,2.00E-06,6.8764,9.7391,-1.3173,8.35E-01,-1.49E+07,1.73E+07,-3.15E+06,4.03E+06,-1.49E+07,1.73E+07,0.00E+00,8.81E-03,9.30E-07,5.70E-03,0.00E+00,8.81E-03,0,2.18E+09,2.10E+05,2.18E+09,0.00E+00,7.55E+08,-2.11E-04,2.00E-06,-1.32E+00,9.74E+00,-1.49E+07,1.73E+07,0.00E+00,8.81E-03,0,2.18E+09,0,1.04E+09
143,1,2.01E-05,-2.11E-04,2.00E-06,-1.63E-04,-1.27E-04,-2.11E-04,2.00E-06,6.8764,9.7704,-0.56092,0.68973,-1.31E+07,3.11E+07,-3.70E+06,5.00E+06,-1.31E+07,3.11E+07,0.00E+00,8.79E-03,8.54E-07,5.70E-03,0.00E+00,8.79E-03,0,2.18E+09,1.79E+05,2.18E+09,0.00E+00,7.59E+08,-2.11E-04,2.00E-06,-5.61E-01,9.77E+00,-1.31E+07,3.11E+07,0.00E+00,8.79E-03,0,2.18E+09,0,1.05E+09
144,1,2.02E-05,-2.11E-04,2.08E-06,-1.62E-04,-1.26E-04,-2.11E-04,2.08E-06,6.8764,9.7356,-0.54838,2.0234,-1.23E+07,2.23E+07,-3.24E+06,4.35E+06,-1.23E+07,2.23E+07,0.00E+00,8.78E-03,8.82E-07,5.70E-03,0.00E+00,8.78E-03,0,2.19E+09,2.43E+05,2.19E+09,0.00E+00,7.57E+08,-2.11E-04,2.08E-06,-5.48E-01,9.74E+00,-1.23E+07,2.23E+07,0.00E+00,8.78E-03,0,2.19E+09,0,1.06E+09
145,1,2.03E-05,-2.11E-04,2.16E-06,-1.61E-04,-1.25E-04,-2.11E-04,2.16E-06,6.8764,9.7361,-0.65521,2.1857,-1.98E+07,1.25E+07,-3.47E+06,3.04E+06,-1.98E+07,1.25E+07,0.00E+00,8.81E-03,6.02E-07,5.70E-03,0.00E+00,8.81E-03,0,2.19E+09,1.33E+05,2.19E+09,0.00E+00,7.48E+08,-2.11E-04,2.16E-06,-6.55E-01,9.74E+00,-1.98E+07,1.25E+07,0.00E+00,8.81E-03,0,2.19E+09,0,1.07E+09
146,1,2.05E-05,-2.11E-04,2.29E-06,-1.60E-04,-1.23E-04,-2.11E-04,2.29E-06,6.8764,9.7281,-0.8394,0.81768,-2.30E+07,1.17E+07,-3.03E+06,3.15E+06,-2.30E+07,1.17E+07,0.00E+00,8.82E-03,7.30E-07,5.70E-03,0.00E+00,8.82E-03,0,2.19E+09,1.18E+05,2.19E+09,0.00E+00,7.42E+08,-2.11E-04,2.29E-06,-8.39E-01,9.73E+00,-2.30E+07,1.17E+07,0.00E+00,8.82E-03,0,2.19E+09,0,1.08E+09
147,1,2.06E-05,-2.11E-04,2.24E-06,-1.59E-04,-1.22E-04,-2.11E-04,2.24E-06,6.8764,9.8062,-1.6515,0.95755,-2.22E+07,1.42E+07,-3.07E+06,4.23E+06,-2.22E+07,1.42E+07,0.00E+00,8.79E-03,5.47E-07,5.70E-03,0.00E+00,8.79E-03,0,2.19E+09,1.38E+05,2.19E+09,0.00E+00,7.52E+08,-2.11E-04,2.24E-06,-1.65E+00,9.81E+00,-2.22E+07,1.42E+07,0.00E+00,8.79E-03,0,2.19E+09,0,1.08E+09
148,1,2.08E-05,-2.11E-04,2.09E-06,-1.58E-04,-1.21E-04,-2.11E-04,2.09E-06,6.8764,9.8627,-1.984,0.78586,-1.81E+07,1.80E+07,-3.44E+06,2.72E+06,-1.81E+07,1.80E+07,0.00E+00,8.80E-03,6.44E-07,5.70E-03,0.00E+00,8.80E-03,0,2.19E+09,2.13E+05,2.19E+09,0.00E+00,7.50E+08,-2.11E-04,2.09E-06,-1.98E+00,9.86E+00,-1.81E+07,1.80E+07,0.00E+00,8.80E-03,0,2.19E+09,0,1.07E+09
149,1,2.09E-05,-2.11E-04,1.97E-06,-1.58E-04,-1.20E-04,-2.11E-04,1.97E-06,6.8764,9.7592,-1.7717,0.58159,-1.86E+07,2.43E+07,-3.89E+06,3.57E+06,-1.86E+07,2.43E+07,0.00E+00,8.82E-03,8.95E-07,5.70E-03,0.00E+00,8.82E-03,0,2.19E+09,1.41E+05,2.19E+09,0.00E+00,7.47E+08,-2.11E-04,1.97E-06,-1.77E+00,9.76E+00,-1.86E+07,2.43E+07,0.00E+00,8.82E-03,0,2.19E+09,0,1.06E+09
150,1,2.10E-05,-2.11E-04,1.91E-06,-1.57E-04,-1.19E-04,-2.11E-04,1.91E-06,6.8764,9.7713,-1.0913,1.3313,-9.86E+06,2.21E+07,-2.25E+06,2.53E+06,-9.86E+06,2.21E+07,0.00E+00,8.79E-03,5.84E-07,5.70E-03,0.00E+00,8.79E-03,0,2.18E+09,1.56E+05,2.18E+09,0.00E+00,7.55E+08,-2.11E-04,1.91E-06,-1.09E+00,9.77E+00,-9.86E+06,2.21E+07,0.00E+00,8.79E-03,0,2.18E+09,0,1.05E+09
151,1,2.12E-05,-2.11E-04,2.03E-06,-1.56E-04,-1.17E-04,-2.11E-04,2.03E-06,6.8764,9.7542,-0.58297,2.0942,-1.73E+07,2.55E+07,-3.49E+06,2.30E+06,-1.73E+07,2.55E+07,0.00E+00,8.77E-03,5.22E-07,5.70E-03,0.00E+00,8.77E-03,0,2.19E+09,1.19E+05,2.19E+09,0.00E+00,7.54E+08,-2.11E-04,2.03E-06,-5.83E-01,9.75E+00,-1.73E+07,2.55E+07,0.00E+00,8.77E-03,0,2.19E+09,0,1.03E+09
152,1,2.13E-05,-2.11E-04,2.21E-06,-1.55E-04,-1.16E-04,-2.11E-04,2.21E-06,6.8764,9.771,-0.50642,2.4682,-2.00E+07,2.16E+07,-2.67E+06,2.80E+06,-2.00E+07,2.16E+07,0.00E+00,8.82E-03,5.99E-07,5.70E-03,0.00E+00,8.82E-03,0,2.19E+09,2.07E+05,2.19E+09,0.00E+00,7.52E+08,-2.11E-04,2.21E-06,-5.06E-01,9.77E+00,-2.00E+07,2.16E+07,0.00E+00,8.82E-03,0,2.19E+09,0,1.02E+09
153,1,2.15E-05,-2.11E-04,2.30E-06,-1.54E-04,-1.15E-04,-2.11E-04,2.30E-06,6.8764,9.7672,-0.71321,1.432,-2.33E+07,9.57E+06,-2.67E+06,2.49E+06,-2.33E+07,9.57E+06,0.00E+00,8.84E-03,5.18E-07,5.70E-03,0.00E+00,8.84E-03,0,2.19E+09,1.73E+05,2.19E+09,0.00E+00,7.48E+08,-2.11E-04,2.30E-06,-7.13E-01,9.77E+00,-2.33E+07,9.57E+06,0.00E+00,8.84E-03,0,2.19E+09,0,9.89E+08
154,1,2.16E-05,-2.11E-04,2.26E-06,-1.53E-04,-1.14E-04,-2.11E-04,2.26E-06,6.8764,9.768,-1.4826,0.69139,-2.77E+07,1.29E+07,-3.04E+06,2.57E+06,-2.77E+07,1.29E+07,0.00E+00,8.79E-03,7.79E-07,5.70E-03,0.00E+00,8.79E-03,0,2.18E+09,92454,2.18E+09,0.00E+00,7.52E+08,-2.11E-04,2.26E-06,-1.48E+00,9.77E+00,-2.77E+07,1.29E+07,0.00E+00,8.79E-03,0,2.18E+09,0,9.64E+08
155,1,2.18E-05,-2.11E-04,2.15E-06,-1.52E-04,-1.13E-04,-2.11E-04,2.15E-06,6.8764,9.7425,-2.3916,0.51124,-1.85E+07,1.71E+07,-2.95E+06,3.01E+06,-1.85E+07,1.71E+07,0.00E+00,8.80E-03,8.22E-07,5.70E-03,0.00E+00,8.80E-03,0,2.18E+09,2.44E+05,2.18E+09,0.00E+00,7.57E+08,-2.11E-04,2.15E-06,-2.39E+00,9.74E+00,-1.85E+07,1.71E+07,0.00E+00,8.80E-03,0,2.18E+09,0,9.40E+08
156,1,2.19E-05,-2.11E-04,1.94E-06,-1.51E-04,-1.11E-04,-2.11E-04,1.94E-06,6.88E+00,9.7828,-1.7242,0.86664,-1.70E+07,2.19E+07,-2.68E+06,2.36E+06,-1.70E+07,2.19E+07,0.00E+00,8.83E-03,7.23E-07,5.70E-03,0.00E+00,8.83E-03,0,2.19E+09,1.50E+05,2.19E+09,0.00E+00,7.50E+08,-2.11E-04,1.94E-06,-1.72E+00,9.78E+00,-1.70E+07,2.19E+07,0.00E+00,8.83E-03,0,2.19E+09,0,9.10E+08
157,1,2.20E-05,-2.11E-04,1.84E-06,-1.50E-04,-1.10E-04,-2.11E-04,1.84E-06,6.8764,9.7685,-1.0812,1.1247,-1.57E+07,2.51E+07,-2.74E+06,3.00E+06,-1.57E+07,2.51E+07,0.00E+00,8.79E-03,1.21E-06,5.70E-03,0.00E+00,8.79E-03,0,2.19E+09,3.60E+05,2.19E+09,0.00E+00,7.48E+08,-2.11E-04,1.84E-06,-1.08E+00,9.77E+00,-1.57E+07,2.51E+07,0.00E+00,8.79E-03,0,2.19E+09,0,8.80E+08
158,1,2.22E-05,-2.11E-04,1.97E-06,-1.49E-04,-1.09E-04,-2.11E-04,1.97E-06,6.8764,9.8423,-0.59345,2.4481,-1.28E+07,2.62E+07,-3.74E+06,2.21E+06,-1.28E+07,2.62E+07,0.00E+00,8.79E-03,4.81E-07,5.70E-03,0.00E+00,8.79E-03,0,2.19E+09,1.48E+05,2.19E+09,0,7.52E+08,-2.11E-04,1.97E-06,-5.93E-01,9.84E+00,-1.28E+07,2.62E+07,0.00E+00,8.79E-03,0,2.19E+09,0,8.70E+08
159,1,2.23E-05,-2.11E-04,2.25E-06,-1.48E-04,-1.08E-04,-2.11E-04,2.25E-06,6.8764,9.7754,-0.59372,2.4625,-1.66E+07,1.45E+07,-2.19E+06,2.55E+06,-1.66E+07,1.45E+07,0.00E+00,8.78E-03,4.13E-07,5.70E-03,0.00E+00,8.78E-03,0,2.19E+09,1.11E+05,2.19E+09,0.00E+00,7.46E+08,-2.11E-04,2.25E-06,-5.94E-01,9.78E+00,-1.66E+07,1.45E+07,0.00E+00,8.78E-03,0,2.19E+09,0,8.47E+08
160,1,2.25E-05,-2.11E-04,2.41E-06,-1.47E-04,-1.06E-04,-2.11E-04,2.41E-06,6.8764,9.6936,-0.66269,1.4033,-3.00E+07,9.27E+06,-2.79E+06,4.46E+06,-3.00E+07,9.27E+06,0.00E+00,8.84E-03,7.08E-07,5.70E-03,0.00E+00,8.84E-03,0,2.19E+09,2.16E+05,2.19E+09,0.00E+00,7.48E+08,-2.11E-04,2.41E-06,-6.63E-01,9.69E+00,-3.00E+07,9.27E+06,0.00E+00,8.84E-03,0,2.19E+09,0,8.24E+08
161,1,2.26E-05,-2.11E-04,2.32E-06,-1.46E-04,-1.05E-04,-2.11E-04,2.32E-06,6.8764,9.7317,-2.8591,0.83228,-2.30E+07,1.18E+07,-2.19E+06,3.06E+06,-2.30E+07,1.18E+07,0.00E+00,8.82E-03,7.40E-07,5.70E-03,0.00E+00,8.82E-03,0,2.19E+09,2.35E+05,2.19E+09,0.00E+00,7.46E+08,-2.11E-04,2.32E-06,-2.86E+00,9.73E+00,-2.30E+07,1.18E+07,0.00E+00,8.82E-03,0,2.19E+09,0,8.20E+08
162,1,2.27E-05,-2.11E-04,2.13E-06,-1.45E-04,-1.04E-04,-2.11E-04,2.13E-06,6.8764,9.7834,-2.7531,0.52964,-1.33E+07,1.93E+07,-2.16E+06,2.47E+06,-1.33E+07,1.93E+07,0.00E+00,8.79E-03,6.28E-07,5.70E-03,0.00E+00,8.79E-03,0,2.19E+09,2.03E+05,2.19E+09,0.00E+00,7.55E+08,-2.11E-04,2.13E-06,-2.75E+00,9.78E+00,-1.33E+07,1.93E+07,0.00E+00,8.79E-03,0,2.19E+09,0,8.08E+08
163,1,2.29E-05,-2.11E-04,1.91E-06,-1.44E-04,-1.03E-04,-2.11E-04,1.91E-06,6.8764,9.8414,-2.0277,0.49264,-1.26E+07,2.48E+07,-3.70E+06,2.94E+06,-1.26E+07,2.48E+07,0.00E+00,8.79E-03,9.51E-07,5.70E-03,0.00E+00,8.79E-03,0,2.19E+09,2.50E+05,2.19E+09,0.00E+00,7.56E+08,-2.11E-04,1.91E-06,-2.03E+00,9.84E+00,-1.26E+07,2.48E+07,0.00E+00,8.79E-03,0,2.19E+09,0,8.05E+08
164,1,2.30E-05,-2.11E-04,1.82E-06,-1.43E-04,-1.02E-04,-2.11E-04,1.82E-06,6.8764,9.8363,-1.1303,1.3136,-8.91E+06,2.32E+07,-2.05E+06,1.67E+06,-8.91E+06,2.32E+07,0.00E+00,8.80E-03,5.85E-07,5.70E-03,0.00E+00,8.80E-03,0,2.19E+09,1.96E+05,2.19E+09,0.00E+00,7.60E+08,-2.11E-04,1.82E-06,-1.13E+00,9.84E+00,-8.91E+06,2.32E+07,0.00E+00,8.80E-03,0,2.19E+09,0,8.03E+08
165,1,2.32E-05,-2.11E-04,1.96E-06,-1.42E-04,-1.00E-04,-2.11E-04,1.96E-06,6.8764,9.7615,-0.4596,2.3829,-8.58E+06,2.55E+07,-2.90E+06,2.27E+06,-8.58E+06,2.55E+07,0.00E+00,8.80E-03,4.99E-07,5.70E-03,0.00E+00,8.80E-03,0,2.18E+09,1.93E+05,2.18E+09,0.00E+00,7.52E+08,-2.11E-04,1.96E-06,-4.60E-01,9.76E+00,-8.58E+06,2.55E+07,0.00E+00,8.80E-03,0,2.18E+09,0,8.06E+08
166,1,2.33E-05,-2.11E-04,2.21E-06,-1.41E-04,-9.92E-05,-2.11E-04,2.21E-06,6.8764,9.7149,-0.62472,2.6267,-1.66E+07,1.08E+07,-2.27E+06,3.30E+06,-1.66E+07,1.08E+07,0.00E+00,8.80E-03,6.29E-07,5.70E-03,0.00E+00,8.80E-03,0,2.19E+09,2.21E+05,2.19E+09,0.00E+00,7.48E+08,-2.11E-04,2.21E-06,-6.25E-01,9.71E+00,-1.66E+07,1.08E+07,0.00E+00,8.80E-03,0,2.19E+09,0,8.07E+08
167,1,2.35E-05,-2.11E-04,2.38E-06,-1.40E-04,-9.80E-05,-2.11E-04,2.38E-06,6.8764,9.7132,-0.59913,1.4357,-2.66E+07,9.90E+06,-2.13E+06,2.60E+06,-2.66E+07,9.90E+06,0.00E+00,8.81E-03,4.76E-07,5.70E-03,0.00E+00,8.81E-03,0,2.19E+09,74516,2.19E+09,0.00E+00,7.51E+08,-2.11E-04,2.38E-06,-5.99E-01,9.71E+00,-2.66E+07,9.90E+06,0.00E+00,8.81E-03,0,2.19E+09,0,8.03E+08
168,1,2.36E-05,-2.11E-04,2.35E-06,-1.39E-04,-9.68E-05,-2.11E-04,2.35E-06,6.8764,9.7031,-1.8987,0.5277,-2.20E+07,9.16E+06,-2.20E+06,2.61E+06,-2.20E+07,9.16E+06,0.00E+00,8.81E-03,5.48E-07,5.70E-03,0.00E+00,8.81E-03,0,2.19E+09,1.55E+05,2.19E+09,0.00E+00,7.50E+08,-2.11E-04,2.35E-06,-1.90E+00,9.70E+00,-2.20E+07,9.16E+06,0.00E+00,8.81E-03,0,2.19E+09,0,8.01E+08
169,1,2.37E-05,-2.11E-04,2.12E-06,-1.38E-04,-9.56E-05,-2.11E-04,2.12E-06,6.8764,9.7653,-2.5506,0.37033,-1.63E+07,1.63E+07,-2.39E+06,1.56E+06,-1.63E+07,1.63E+07,0.00E+00,8.80E-03,8.34E-07,5.70E-03,0.00E+00,8.80E-03,0,2.19E+09,2.46E+05,2.19E+09,0.00E+00,7.51E+08,-2.11E-04,2.12E-06,-2.55E+00,9.77E+00,-1.63E+07,1.63E+07,0.00E+00,8.80E-03,0,2.19E+09,0,8.08E+08
170,1,2.39E-05,-2.11E-04,1.87E-06,-1.37E-04,-9.44E-05,-2.11E-04,1.87E-06,6.8764,9.7652,-2.1917,0.58988,-1.06E+07,2.35E+07,-1.93E+06,3.10E+06,-1.06E+07,2.35E+07,0.00E+00,8.79E-03,6.33E-07,5.70E-03,0.00E+00,8.79E-03,0,2.18E+09,2.11E+05,2.18E+09,0.00E+00,7.39E+08,-2.11E-04,1.87E-06,-2.19E+00,9.77E+00,-1.06E+07,2.35E+07,0.00E+00,8.79E-03,0,2.18E+09,0,8.02E+08
171,1,2.40E-05,-2.11E-04,1.82E-06,-1.36E-04,-9.32E-05,-2.11E-04,1.82E-06,6.8764,9.7769,-0.88691,1.2612,-8.54E+06,2.21E+07,-2.09E+06,1.68E+06,-8.54E+06,2.21E+07,0.00E+00,8.81E-03,6.68E-07,5.70E-03,0.00E+00,8.81E-03,0,2.19E+09,2.14E+05,2.19E+09,0.00E+00,7.55E+08,-2.11E-04,1.82E-06,-8.87E-01,9.78E+00,-8.54E+06,2.21E+07,0.00E+00,8.81E-03,0,2.19E+09,0,8.04E+08
172,1,2.42E-05,-2.11E-04,2.03E-06,-1.35E-04,-9.20E-05,-2.11E-04,2.03E-06,6.8764,9.7988,-0.45319,2.3144,-8.32E+06,2.22E+07,-2.43E+06,2.33E+06,-8.32E+06,2.22E+07,0.00E+00,8.80E-03,4.79E-07,5.70E-03,0.00E+00,8.80E-03,0,2.19E+09,1.78E+05,2.19E+09,0.00E+00,7.55E+08,-2.11E-04,2.03E-06,-4.53E-01,9.80E+00,-8.32E+06,2.22E+07,0.00E+00,8.80E-03,0,2.19E+09,0,8.07E+08
173,1,2.43E-05,-2.11E-04,2.27E-06,-1.34E-04,-9.08E-05,-2.11E-04,2.27E-06,6.8764,9.7632,-0.56566,2.6589,-1.93E+07,1.14E+07,-3.14E+06,1.74E+06,-1.93E+07,1.14E+07,0,8.78E-03,7.12E-07,5.70E-03,0,8.78E-03,0,2.19E+09,2.26E+05,2.19E+09,0,7.45E+08,-2.11E-04,2.27E-06,-0.56566,9.7632,-1.93E+07,1.14E+07,0,8.78E-03,0,2.19E+09,,
174,1,2.44E-05,-2.11E-04,2.37E-06,-1.33E-04,-8.95E-05,-2.11E-04,2.37E-06,6.8764,9.7752,-1.24,1.945,-2.18E+07,1.12E+07,-2.79E+06,1.91E+06,-2.18E+07,1.12E+07,0.00E+00,8.82E-03,4.36E-07,5.70E-03,0.00E+00,8.82E-03,0,2.19E+09,1.58E+05,2.19E+09,0.00E+00,7.53E+08,-2.11E-04,2.37E-06,-1.24E+00,9.78E+00,-2.18E+07,1.12E+07,0.00E+00,8.82E-03,0,2.19E+09,0,8.04E+08
175,1,2.46E-05,-2.11E-04,2.30E-06,-1.32E-04,-8.83E-05,-2.11E-04,2.30E-06,6.8764,9.6903,-2.3537,0.52668,-2.40E+07,1.20E+07,-2.02E+06,2.78E+06,-2.40E+07,1.20E+07,0,8.81E-03,9.37E-07,5.70E-03,0,8.81E-03,0,2.18E+09,2.70E+05,2.18E+09,0,7.65E+08,-2.11E-04,2.30E-06,-2.3537,9.6903,-2.40E+07,1.20E+07,0,8.81E-03,0,2.18E+09,,
176,1,2.47E-05,-2.11E-04,2.11E-06,-1.31E-04,-8.71E-05,-2.11E-04,2.11E-06,6.8764,9.6929,-2.405,0.4565,-1.57E+07,1.61E+07,-1.68E+06,1.63E+06,-1.57E+07,1.61E+07,0,8.81E-03,4.73E-07,5.70E-03,0,8.81E-03,0,2.18E+09,1.16E+05,2.18E+09,0,7.61E+08,-2.11E-04,2.11E-06,-2.405,9.6929,-1.57E+07,1.61E+07,0,8.81E-03,0,2.18E+09,,
177,1,2.49E-05,-2.11E-04,1.90E-06,-1.30E-04,-8.59E-05,-2.11E-04,1.90E-06,6.8764,9.7443,-2.374,1.3762,-7.08E+06,2.04E+07,-2.09E+06,3.32E+06,-7.08E+06,2.04E+07,0,8.78E-03,4.31E-07,5.70E-03,0,8.78E-03,0,2.19E+09,1.13E+05,2.19E+09,0,7.43E+08,-2.11E-04,1.90E-06,-2.374,9.7443,-7.08E+06,2.04E+07,0,8.78E-03,0,2.19E+09,,
178,1,2.50E-05,-2.11E-04,1.93E-06,-1.29E-04,-8.47E-05,-2.11E-04,1.93E-06,6.8764,9.787,-1.1716,1.7528,-9.44E+06,2.38E+07,-2.16E+06,1.68E+06,-9.44E+06,2.38E+07,0,8.79E-03,8.65E-07,5.70E-03,0,8.79E-03,0,2.19E+09,2.80E+05,2.19E+09,0,7.49E+08,-2.11E-04,1.93E-06,-1.1716,9.787,-9.44E+06,2.38E+07,0,8.79E-03,0,2.19E+09,,
179,1,2.51E-05,-2.11E-04,2.11E-06,-1.28E-04,-8.35E-05,-2.11E-04,2.11E-06,6.8764,9.8279,-0.52266,2.1495,-1.54E+07,1.57E+07,-2.38E+06,1.69E+06,-1.54E+07,1.57E+07,0,8.83E-03,4.33E-07,5.70E-03,0,8.83E-03,0,2.19E+09,90978,2.19E+09,0,7.52E+08,-2.11E-04,2.11E-06,-0.52266,9.8279,-1.54E+07,1.57E+07,0,8.83E-03,0,2.19E+09,,
180,1,2.53E-05,-2.11E-04,2.25E-06,-1.27E-04,-8.23E-05,-2.11E-04,2.25E-06,6.8764,9.7934,-0.43113,2.0682,-1.75E+07,8.70E+06,-1.88E+06,2.53E+06,-1.75E+07,8.70E+06,0,8.81E-03,4.26E-07,5.70E-03,0,8.81E-03,0,2.19E+09,1.33E+05,2.19E+09,0,7.40E+08,-2.11E-04,2.25E-06,-0.43113,9.7934,-1.75E+07,8.70E+06,0,8.81E-03,0,2.19E+09,,
181,1,2.54E-05,-2.11E-04,2.28E-06,-1.26E-04,-8.11E-05,-2.11E-04,2.28E-06,6.8764,9.7007,-1.6298,1.6688,-1.91E+07,1.14E+07,-1.80E+06,2.01E+06,-1.91E+07,1.14E+07,0,8.81E-03,4.90E-07,5.70E-03,0,8.81E-03,0,2.19E+09,1.43E+05,2.19E+09,0,7.41E+08,-2.11E-04,2.28E-06,-1.6298,9.7007,-1.91E+07,1.14E+07,0,8.81E-03,0,2.19E+09,,
182,1,2.56E-05,-2.11E-04,2.22E-06,-1.25E-04,-7.99E-05,-2.11E-04,2.22E-06,6.8764,9.6792,-2.4649,0.53287,-1.78E+07,1.05E+07,-1.93E+06,1.64E+06,-1.78E+07,1.05E+07,0,8.79E-03,3.63E-07,5.70E-03,0,8.79E-03,0,2.18E+09,1.29E+05,2.18E+09,0,7.60E+08,-2.11E-04,2.22E-06,-2.4649,9.6792,-1.78E+07,1.05E+07,0,8.79E-03,0,2.18E+09,,
183,1,2.57E-05,-2.11E-04,2.07E-06,-1.24E-04,-7.86E-05,-2.11E-04,2.07E-06,6.8764,9.6808,-1.8525,0.47821,-9.46E+06,1.90E+07,-2.13E+06,1.92E+06,-9.46E+06,1.90E+07,0,8.80E-03,4.55E-07,5.70E-03,0,8.80E-03,0,2.19E+09,1.33E+05,2.19E+09,0,7.61E+08,-2.11E-04,2.07E-06,-1.8525,9.6808,-9.46E+06,1.90E+07,0,8.80E-03,0,2.19E+09,,
184,1,2.59E-05,-2.11E-04,1.97E-06,-1.24E-04,-7.74E-05,-2.11E-04,1.97E-06,6.8764,9.7681,-1.0468,0.96694,-8.78E+06,2.14E+07,-1.84E+06,1.70E+06,-8.78E+06,2.14E+07,0,8.78E-03,6.48E-07,5.70E-03,0,8.78E-03,0,2.19E+09,2.01E+05,2.19E+09,0,7.52E+08,-2.11E-04,1.97E-06,-1.0468,9.7681,-8.78E+06,2.14E+07,0,8.78E-03,0,2.19E+09,,
185,1,2.60E-05,-2.11E-04,2.01E-06,-1.23E-04,-7.62E-05,-2.11E-04,2.01E-06,6.8764,9.7804,-0.5681,1.2435,-8.38E+06,1.46E+07,-1.72E+06,2.23E+06,-8.38E+06,1.46E+07,0,8.80E-03,5.67E-07,5.70E-03,0,8.80E-03,0,2.19E+09,1.64E+05,2.19E+09,0,7.51E+08,-2.11E-04,2.01E-06,-0.5681,9.7804,-8.38E+06,1.46E+07,0,8.80E-03,0,2.19E+09,,
186,1,2.61E-05,-2.11E-04,2.11E-06,-1.22E-04,-7.50E-05,-2.11E-04,2.11E-06,6.8764,9.7653,-0.47769,1.5976,-1.68E+07,1.01E+07,-1.48E+06,1.58E+06,-1.68E+07,1.01E+07,0,8.81E-03,6.11E-07,5.70E-03,0,8.81E-03,0,2.18E+09,1.06E+05,2.18E+09,0,7.59E+08,-2.11E-04,2.11E-06,-0.47769,9.7653,-1.68E+07,1.01E+07,0,8.81E-03,0,2.18E+09,,
187,1,2.63E-05,-2.11E-04,2.18E-06,-1.21E-04,-7.38E-05,-2.11E-04,2.18E-06,6.8764,9.7746,-0.66769,1.1039,-1.82E+07,1.04E+07,-1.64E+06,1.51E+06,-1.82E+07,1.04E+07,0,8.81E-03,7.99E-07,5.70E-03,0,8.81E-03,0,2.19E+09,2.49E+05,2.19E+09,0,7.50E+08,-2.11E-04,2.18E-06,-0.66769,9.7746,-1.82E+07,1.04E+07,0,8.81E-03,0,2.19E+09,,
188,1,2.64E-05,-2.11E-04,2.18E-06,-1.20E-04,-7.26E-05,-2.11E-04,2.18E-06,6.8764,9.7621,-0.75938,0.72826,-1.76E+07,1.08E+07,-1.71E+06,1.83E+06,-1.76E+07,1.08E+07,0,8.81E-03,4.64E-07,5.70E-03,0,8.81E-03,0,2.19E+09,1.63E+05,2.19E+09,0,7.38E+08,-2.11E-04,2.18E-06,-0.75938,9.7621,-1.76E+07,1.08E+07,0,8.81E-03,0,2.19E+09,,
189,1,2.66E-05,-2.11E-04,2.12E-06,-1.19E-04,-7.14E-05,-2.11E-04,2.12E-06,6.8764,9.7622,-1.3867,0.79639,-1.05E+07,1.05E+07,-1.82E+06,1.70E+06,-1.05E+07,1.05E+07,0,8.81E-03,5.19E-07,5.70E-03,0,8.81E-03,0,2.19E+09,1.89E+05,2.19E+09,0,7.51E+08,-2.11E-04,2.12E-06,-1.3867,9.7622,-1.05E+07,1.05E+07,0,8.81E-03,0,2.19E+09,,
190,1,2.67E-05,-2.11E-04,2.05E-06,-1.18E-04,-7.02E-05,-2.11E-04,2.05E-06,6.8764,9.7089,-1.2476,0.74784,-8.76E+06,1.37E+07,-1.92E+06,1.74E+06,-8.76E+06,1.37E+07,0,8.80E-03,5.61E-07,5.70E-03,0,8.80E-03,0,2.18E+09,1.29E+05,2.18E+09,0,7.56E+08,-2.11E-04,2.05E-06,-1.2476,9.7089,-8.76E+06,1.37E+07,0,8.80E-03,0,2.18E+09,,
191,1,2.68E-05,-2.11E-04,2.04E-06,-1.17E-04,-6.90E-05,-2.11E-04,2.04E-06,6.8764,9.7214,-0.51739,0.73591,-1.37E+07,1.92E+07,-2.08E+06,4.23E+06,-1.37E+07,1.92E+07,0,8.80E-03,6.62E-07,5.70E-03,0,8.80E-03,0,2.18E+09,1.72E+05,2.18E+09,0,7.45E+08,-2.11E-04,2.04E-06,-0.51739,9.7214,-1.37E+07,1.92E+07,0,8.80E-03,0,2.18E+09,,
192,1,2.70E-05,-2.11E-04,2.11E-06,-1.16E-04,-6.77E-05,-2.11E-04,2.11E-06,6.8764,9.7359,-0.67718,1.0685,-1.16E+07,1.35E+07,-1.44E+06,1.58E+06,-1.16E+07,1.35E+07,0,8.81E-03,7.17E-07,5.70E-03,0,8.81E-03,0,2.19E+09,2.18E+05,2.19E+09,0,7.47E+08,-2.11E-04,2.11E-06,-0.67718,9.7359,-1.16E+07,1.35E+07,0,8.81E-03,0,2.19E+09,,
193,1,2.71E-05,-2.11E-04,2.15E-06,-1.15E-04,-6.65E-05,-2.11E-04,2.15E-06,6.8764,9.7518,-0.5793,1.1111,-1.43E+07,8.99E+06,-2.23E+06,1.91E+06,-1.43E+07,8.99E+06,0,8.80E-03,7.79E-07,5.70E-03,0,8.80E-03,0,2.19E+09,2.11E+05,2.19E+09,0,7.57E+08,-2.11E-04,2.15E-06,-0.5793,9.7518,-1.43E+07,8.99E+06,0,8.80E-03,0,2.19E+09,,
194,1,2.73E-05,-2.11E-04,2.17E-06,-1.14E-04,-6.53E-05,-2.11E-04,2.17E-06,6.8764,9.7875,-1.2604,0.77505,-1.31E+07,8.61E+06,-1.61E+06,1.63E+06,-1.31E+07,8.61E+06,0,8.81E-03,4.04E-07,5.70E-03,0,8.81E-03,0,2.19E+09,1.11E+05,2.19E+09,0,7.55E+08,-2.11E-04,2.17E-06,-1.2604,9.7875,-1.31E+07,8.61E+06,0,8.81E-03,0,2.19E+09,,
195,1,2.74E-05,-2.11E-04,2.11E-06,-1.13E-04,-6.41E-05,-2.11E-04,2.11E-06,6.8764,9.8279,-0.97724,0.53225,-1.11E+07,9.45E+06,-1.34E+06,2.53E+06,-1.11E+07,9.45E+06,0,8.81E-03,5.79E-07,5.70E-03,0,8.81E-03,0,2.18E+09,2.46E+05,2.18E+09,0,7.53E+08,-2.11E-04,2.11E-06,-0.97724,9.8279,-1.11E+07,9.45E+06,0,8.81E-03,0,2.18E+09,,
196,1,2.75E-05,-2.11E-04,2.04E-06,-1.12E-04,-6.29E-05,-2.11E-04,2.04E-06,6.8764,9.7334,-1.0537,0.63299,-1.11E+07,1.55E+07,-2.37E+06,1.74E+06,-1.11E+07,1.55E+07,0,8.79E-03,5.63E-07,5.70E-03,0,8.79E-03,0,2.18E+09,80405,2.18E+09,0,7.50E+08,-2.11E-04,2.04E-06,-1.0537,9.7334,-1.11E+07,1.55E+07,0,8.79E-03,0,2.18E+09,,
197,1,2.77E-05,-2.11E-04,2.03E-06,-1.11E-04,-6.17E-05,-2.11E-04,2.03E-06,6.8764,9.6935,-0.85583,1.1131,-7.43E+06,1.78E+07,-2.26E+06,1.61E+06,-7.43E+06,1.78E+07,0,8.82E-03,4.82E-07,5.70E-03,0,8.82E-03,0,2.19E+09,1.86E+05,2.19E+09,0,7.60E+08,-2.11E-04,2.03E-06,-0.85583,9.6935,-7.43E+06,1.78E+07,0,8.82E-03,0,2.19E+09,,
198,1,2.78E-05,-2.11E-04,2.12E-06,-1.10E-04,-6.05E-05,-2.11E-04,2.12E-06,6.8764,9.691,-0.47235,1.7955,-1.02E+07,1.44E+07,-1.65E+06,1.48E+06,-1.02E+07,1.44E+07,0,8.79E-03,8.31E-07,5.70E-03,0,8.79E-03,0,2.19E+09,2.46E+05,2.19E+09,0,7.52E+08,-2.11E-04,2.12E-06,-0.47235,9.691,-1.02E+07,1.44E+07,0,8.79E-03,0,2.19E+09,,
199,1,2.80E-05,-2.11E-04,2.18E-06,-1.09E-04,-5.93E-05,-2.11E-04,2.18E-06,6.8764,9.7651,-0.45823,1.3695,-1.47E+07,6.52E+06,-1.70E+06,2.21E+06,-1.47E+07,6.52E+06,0,8.81E-03,3.92E-07,5.70E-03,0,8.81E-03,0,2.19E+09,1.24E+05,2.19E+09,0,7.41E+08,-2.11E-04,2.18E-06,-0.45823,9.7651,-1.47E+07,6.52E+06,0,8.81E-03,0,2.19E+09,,
200,1,2.81E-05,-2.11E-04,2.21E-06,-1.08E-04,-5.81E-05,-2.11E-04,2.21E-06,6.8764,9.8175,-1.1857,0.49571,-1.70E+07,7.71E+06,-1.37E+06,1.82E+06,-1.70E+07,7.71E+06,0,8.82E-03,8.34E-07,5.70E-03,0,8.82E-03,0,2.19E+09,2.94E+05,2.19E+09,0,7.49E+08,-2.11E-04,2.21E-06,-1.1857,9.8175,-1.70E+07,7.71E+06,0,8.82E-03,0,2.19E+09,,
201,1,2.83E-05,-2.11E-04,2.16E-06,-1.07E-04,-5.68E-05,-2.11E-04,2.16E-06,6.8764,9.7734,-1.4861,0.44774,-1.01E+07,8.36E+06,-1.56E+06,1.66E+06,-1.01E+07,8.36E+06,0,8.78E-03,4.91E-07,5.70E-03,0,8.78E-03,0,2.18E+09,1.27E+05,2.18E+09,0,7.54E+08,-2.11E-04,2.16E-06,-1.4861,9.7734,-1.01E+07,8.36E+06,0,8.78E-03,0,2.18E+09,,
202,1,6.00E-05,,,,,,,,,,,,,,,,,,,,,,,,,,,,,,,,,,,,,,,,
