Unnamed: 0,Steps,Time [s],[A] Directional Deformation Flexible (Min) [m],[B] Directional Deformation Flexible (Max) [m],[C] Directional Deformation SiC (Min) [m],[D] Directional Deformation SiC (Max) [m],[E] Directional Deformation Asperity (Min) [m],[F] Directional Deformation Asperity (Max) [m],[G] Directional Velocity Flexible (Min) [m/s],[H] Directional Velocity Flexible (Max) [m/s],[I] Directional Velocity SiC (Min) [m/s],[J] Directional Velocity SiC (Max) [m/s],[K] Directional Velocity Asperity (Min) [m/s],[L] Directional Velocity Asperity (Max) [m/s],[M] Directional Acceleration Flexible (Min) [m/s²],[N] Directional Acceleration Flexible (Max) [m/s²],[O] Directional Acceleration SiC (Min) [m/s²],[P] Directional Acceleration SiC (Max) [m/s²],[Q] Directional Acceleration Asperity (Min) [m/s²],[R] Directional Acceleration Asperity (Max) [m/s²],[S] Equivalent Elastic Strain Flexible (Min) [m/m],[T] Equivalent Elastic Strain Flexible (Max) [m/m],[U] Equivalent Elastic Strain SiC (Min) [m/m],[V] Equivalent Elastic Strain SiC (Max) [m/m],[W] Equivalent Elastic Strain Asperity (Min) [m/m],[X] Equivalent Elastic Strain Asperity (Max) [m/m],[Y] Equivalent Stress Flexible (Min) [Pa],[Z] Equivalent Stress Flexible (Max) [Pa],[AA] Equivalent Stress SiC (Min) [Pa],[AB] Equivalent Stress SiC (Max) [Pa],[AC] Equivalent Stress Asperity (Min) [Pa],[AD] Equivalent Stress Asperity (Max) [Pa],[AE] Directional Deformation 4 (Min) [m],[AF] Directional Deformation 4 (Max) [m],[AG] Directional Velocity 4 (Min) [m/s],[AH] Directional Velocity 4 (Max) [m/s],[AI] Directional Acceleration (Min) [m/s²],[AJ] Directional Acceleration (Max) [m/s²],[AK] Equivalent Elastic Strain 4 (Min) [m/m],[AL] Equivalent Elastic Strain 4 (Max) [m/m],[AM] Equivalent Stress 4 (Min) [Pa],[AN] Equivalent Stress 4 (Max) [Pa],Force (min),Force (max),,Momentum
1,1,1.18E-38,0,0,0,0,0,0,-15,0,-15,-15,0,0,0,0,0,0,0,0,0,0,0,0,0,0,0,0,0,0,0,0,0,0,-15,0,0,0,0,0,0,0,0.00E+00,0.00E+00,4.52E-13,0.00E+00
2,1,1.26E-07,-1.89E-06,2.27E-08,-1.89E-06,-1.86E-06,-4.99E-07,2.27E-08,-16.901,0.35876,-16.901,-12.639,-14.494,0.35876,-2.10E+08,4.91E+08,-1.23E+08,4.91E+08,-2.10E+08,4.85E+07,0,3.55E-03,0,2.36E-04,0,3.55E-03,0,2.16E+08,0,6.18E+07,0,2.16E+08,-1.89E-06,2.27E-08,-16.901,0.35876,-2.10E+08,4.91E+08,0,3.55E-03,0,2.16E+08,-5.55E-05,2.22E-04,4.52E-04,0.00E+00
3,1,2.54E-07,-3.82E-06,2.54E-10,-3.82E-06,-3.68E-06,-2.16E-06,2.54E-10,-15.33,4.58E-03,-15.33,-14.199,-14.383,4.58E-03,-2.66E+08,1.92E+08,-2.66E+08,1.92E+08,-1.23E+08,1.08E+08,0,1.18E-02,0,6.10E-04,0,1.18E-02,0,6.77E+08,0,1.36E+08,0,6.77E+08,-3.82E-06,2.54E-10,-15.33,4.58E-03,-2.66E+08,1.92E+08,0,1.18E-02,0,6.77E+08,-1.20E-04,8.67E-05,momentum,0.00E+00
4,1,3.83E-07,-5.74E-06,1.06E-09,-5.74E-06,-5.56E-06,-4.04E-06,1.06E-09,-16.654,7.23E-02,-15.417,-12.074,-16.654,7.23E-02,-5.22E+08,5.34E+08,-8.25E+07,1.84E+08,-5.22E+08,5.34E+08,0,1.21E-02,9.95E-09,6.74E-04,0,1.21E-02,0,7.76E+08,4348.7,1.71E+08,0,7.76E+08,-5.74E-06,1.06E-09,-16.654,7.23E-02,-5.22E+08,5.34E+08,0,1.21E-02,0,7.76E+08,-3.73E-05,8.31E-05,6.78E-12,-1.12E-11
5,1,5.11E-07,-7.67E-06,2.29E-09,-7.67E-06,-7.29E-06,-5.94E-06,2.29E-09,-15.42,0.10432,-15.42,-13.408,-15.207,0.10432,-1.19E+08,6.46E+07,-1.19E+08,6.46E+07,-1.07E+08,5.48E+07,0,1.22E-02,7.93E-08,1.37E-03,0,1.22E-02,0,8.53E+08,32086,3.48E+08,0,8.53E+08,-7.67E-06,2.29E-09,-15.42,0.10432,-1.19E+08,6.46E+07,0,1.22E-02,0,8.53E+08,-5.37E-05,2.92E-05,1.36E-11,-2.18E-11
6,1,6.40E-07,-9.59E-06,4.31E-09,-9.59E-06,-9.01E-06,-7.83E-06,4.31E-09,-15.611,2.88E-02,-15.611,-12.899,-13.518,2.88E-02,-6.30E+08,2.19E+08,-2.65E+08,2.19E+08,-6.30E+08,8.28E+07,0,1.23E-02,2.35E-07,2.14E-03,0,1.23E-02,0,9.32E+08,97409,5.53E+08,0,9.32E+08,-9.59E-06,4.31E-09,-15.611,2.88E-02,-6.30E+08,2.19E+08,0,1.23E-02,0,9.32E+08,-1.20E-04,9.89E-05,,-2.56E-11
7,1,7.68E-07,-1.15E-05,5.46E-09,-1.15E-05,-1.08E-05,-9.69E-06,5.46E-09,-17.274,0.14119,-15.299,-13.341,-17.274,0.14119,-1.27E+08,1.47E+08,-1.27E+08,1.18E+08,-1.11E+08,1.47E+08,0,1.24E-02,4.57E-07,2.63E-03,0,1.24E-02,0,1.04E+09,1.75E+05,7.14E+08,0,1.04E+09,-1.15E-05,5.46E-09,-17.274,0.14119,-1.27E+08,1.47E+08,0,1.24E-02,0,1.04E+09,-5.73E-05,5.33E-05,,-3.82E-11
8,1,8.96E-07,-1.34E-05,6.12E-09,-1.34E-05,-1.26E-05,-1.19E-05,6.12E-09,-17.823,0.44598,-15.334,-13.498,-17.823,0.44598,-1.09E+08,1.06E+08,-1.09E+08,1.06E+08,-4.35E+07,7.12E+07,0,1.25E-02,4.40E-07,2.83E-03,0,1.25E-02,0,1.10E+09,1.14E+05,7.89E+08,0,1.10E+09,-1.34E-05,6.12E-09,-17.823,0.44598,-1.09E+08,1.06E+08,0,1.25E-02,0,1.10E+09,-4.92E-05,4.79E-05,,-4.51E-11
9,1,1.02E-06,-1.54E-05,6.95E-09,-1.54E-05,-1.43E-05,-1.40E-05,6.95E-09,-15.3,0.16894,-15.3,-12.929,-14.263,0.16894,-2.62E+08,2.76E+08,-2.62E+08,1.84E+08,-1.33E+08,2.76E+08,0,1.26E-02,6.16E-07,2.74E-03,0,1.26E-02,0,1.20E+09,1.98E+05,8.75E+08,0,1.20E+09,-1.54E-05,6.95E-09,-15.3,0.16894,-2.62E+08,2.76E+08,0,1.26E-02,0,1.20E+09,-1.18E-04,8.31E-05,,-5.10E-11
10,1,1.15E-06,-1.73E-05,8.14E-09,-1.73E-05,-1.61E-05,-1.61E-05,8.14E-09,-16.115,0.23456,-15.31,-13.09,-16.115,0.23456,-1.10E+08,9.04E+07,-1.10E+08,9.04E+07,-7.22E+07,6.72E+07,0,1.27E-02,8.85E-07,3.59E-03,0,1.27E-02,0,1.24E+09,3.11E+05,1.09E+09,0,1.24E+09,-1.73E-05,8.14E-09,-16.115,0.23456,-1.10E+08,9.04E+07,0,1.27E-02,0,1.24E+09,-4.97E-05,4.08E-05,,-6.18E-11
11,1,1.28E-06,-1.92E-05,1.24E-08,-1.92E-05,-1.79E-05,-1.82E-05,1.24E-08,-16.211,1.0678,-14.873,-12.932,-16.211,1.0678,-1.32E+08,6.26E+07,-1.32E+08,6.02E+07,-4.29E+07,6.26E+07,0,1.27E-02,1.12E-06,4.98E-03,0,1.27E-02,0,1.28E+09,4.74E+05,1.28E+09,0,1.25E+09,-1.92E-05,1.24E-08,-16.211,1.0678,-1.32E+08,6.26E+07,0,1.27E-02,0,1.28E+09,-5.96E-05,2.72E-05,,-6.71E-11
12,1,1.41E-06,-2.11E-05,1.14E-08,-2.11E-05,-1.96E-05,-2.02E-05,1.14E-08,-15.895,0.96606,-15.059,-13.469,-15.895,0.96606,-1.15E+08,5.26E+07,-1.15E+08,5.26E+07,-5.94E+07,4.68E+07,0,1.27E-02,8.42E-07,6.48E-03,0,1.27E-02,0,1.47E+09,2.18E+05,1.47E+09,0,1.25E+09,-2.11E-05,1.14E-08,-15.895,0.96606,-1.15E+08,5.26E+07,0,1.27E-02,0,1.47E+09,-5.19E-05,2.38E-05,,-7.07E-11
13,1,1.54E-06,-2.29E-05,1.34E-08,-2.29E-05,-2.13E-05,-2.21E-05,1.34E-08,-15.214,2.284,-14.926,-12.876,-15.214,2.284,-3.60E+08,6.13E+08,-3.60E+08,2.47E+08,-2.16E+08,6.13E+08,0,1.27E-02,1.33E-06,7.51E-03,0,1.27E-02,0,1.73E+09,5.23E+05,1.73E+09,0,1.30E+09,-2.29E-05,1.34E-08,-15.214,2.284,-3.60E+08,6.13E+08,0,1.27E-02,0,1.73E+09,-1.63E-04,1.12E-04,,-7.37E-11
14,1,1.67E-06,-2.48E-05,1.58E-08,-2.48E-05,-2.31E-05,-2.40E-05,1.58E-08,-14.986,0.62779,-14.986,-13.076,-14.774,0.62779,-7.14E+07,1.28E+08,-7.14E+07,1.28E+08,-6.29E+07,7.58E+07,0,1.27E-02,1.21E-06,7.31E-03,0,1.27E-02,0,1.84E+09,5.02E+05,1.84E+09,0,1.33E+09,-2.48E-05,1.58E-08,-14.986,0.62779,-7.14E+07,1.28E+08,0,1.27E-02,0,1.84E+09,-3.22E-05,5.78E-05,,-8.83E-11
15,1,1.80E-06,-2.67E-05,2.22E-08,-2.67E-05,-2.50E-05,-2.59E-05,2.22E-08,-14.649,1.0201,-14.649,-12.808,-14.521,1.0201,-5.83E+07,6.17E+07,-5.83E+07,6.17E+07,-4.65E+07,4.36E+07,0,1.27E-02,1.13E-06,7.05E-03,0,1.27E-02,0,1.97E+09,3.87E+05,1.97E+09,0,1.35E+09,-2.67E-05,2.22E-08,-14.649,1.0201,-5.83E+07,6.17E+07,0,1.27E-02,0,1.97E+09,-2.63E-05,2.79E-05,,-9.58E-11
16,1,1.92E-06,-2.86E-05,1.62E-08,-2.86E-05,-2.68E-05,-2.77E-05,1.62E-08,-17.526,1.4856,-14.675,-13.37,-17.526,1.4856,-4.83E+07,7.11E+07,-4.83E+07,7.11E+07,-4.24E+07,6.85E+07,0,1.27E-02,7.80E-07,6.81E-03,0,1.27E-02,0,2.09E+09,1.98E+05,2.09E+09,0,1.36E+09,-2.86E-05,1.62E-08,-17.526,1.4856,-4.83E+07,7.11E+07,0,1.27E-02,0,2.09E+09,-2.18E-05,3.21E-05,,-9.92E-11
17,1,2.05E-06,-3.04E-05,1.60E-08,-3.04E-05,-2.87E-05,-2.95E-05,1.60E-08,-16.834,2.1685,-14.509,-13.165,-16.834,2.1685,-4.90E+07,4.68E+07,-4.90E+07,4.68E+07,-3.13E+07,3.76E+07,0,1.27E-02,1.28E-06,6.33E-03,0,1.27E-02,0,2.15E+09,5.29E+05,2.15E+09,0,1.36E+09,-3.04E-05,1.60E-08,-16.834,2.1685,-4.90E+07,4.68E+07,0,1.27E-02,0,2.15E+09,-2.21E-05,2.11E-05,,-1.03E-10
18,1,2.18E-06,-3.22E-05,1.84E-08,-3.22E-05,-3.05E-05,-3.13E-05,1.84E-08,-15.457,1.8268,-14.38,-11.646,-15.457,1.8268,-1.02E+09,2.68E+08,-1.02E+09,2.68E+08,-5.76E+08,2.48E+08,0,1.27E-02,1.66E-06,6.46E-03,0,1.27E-02,0,2.19E+09,7.19E+05,2.19E+09,0,1.37E+09,-3.22E-05,1.84E-08,-15.457,1.8268,-1.02E+09,2.68E+08,0,1.27E-02,0,2.19E+09,-4.61E-04,1.21E-04,,-1.06E-10
19,1,2.31E-06,-3.41E-05,2.82E-08,-3.41E-05,-3.22E-05,-3.31E-05,2.82E-08,-15.286,1.5692,-14.687,-12.118,-15.286,1.5692,-3.90E+08,2.03E+08,-3.90E+08,1.15E+08,-1.11E+08,2.03E+08,0,1.27E-02,1.54E-06,6.47E-03,0,1.27E-02,0,2.25E+09,4.87E+05,2.25E+09,0,1.37E+09,-3.41E-05,2.82E-08,-15.286,1.5692,-3.90E+08,2.03E+08,0,1.27E-02,0,2.25E+09,-1.76E-04,5.19E-05,,-1.22E-10
20,1,2.44E-06,-3.59E-05,2.66E-08,-3.59E-05,-3.40E-05,-3.48E-05,2.66E-08,-14.772,2.1091,-14.2,-12.564,-14.772,2.1091,-1.01E+08,8.29E+07,-1.01E+08,6.33E+07,-3.64E+07,8.29E+07,0,1.27E-02,1.37E-06,6.46E-03,0,1.27E-02,0,2.28E+09,3.38E+05,2.28E+09,0,1.37E+09,-3.59E-05,2.66E-08,-14.772,2.1091,-1.01E+08,8.29E+07,0,1.27E-02,0,2.28E+09,-4.56E-05,2.86E-05,,-1.29E-10
21,1,2.57E-06,-3.77E-05,2.61E-08,-3.77E-05,-3.57E-05,-3.65E-05,2.61E-08,-14.405,2.5351,-14.249,-12.736,-14.405,2.5351,-5.58E+07,4.67E+07,-5.58E+07,4.67E+07,-3.64E+07,4.11E+07,0,1.27E-02,1.38E-06,6.44E-03,0,1.27E-02,0,2.30E+09,5.38E+05,2.30E+09,0,1.38E+09,-3.77E-05,2.61E-08,-14.405,2.5351,-5.58E+07,4.67E+07,0,1.27E-02,0,2.30E+09,-2.52E-05,2.11E-05,,-1.32E-10
22,1,2.69E-06,-3.95E-05,2.27E-08,-3.95E-05,-3.74E-05,-3.82E-05,2.27E-08,-14.234,0.79059,-14.197,-10.967,-14.234,0.79059,-3.56E+08,1.73E+08,-2.13E+08,1.04E+08,-3.56E+08,1.73E+08,0,1.28E-02,2.08E-06,6.42E-03,0,1.28E-02,0,2.36E+09,9.18E+05,2.36E+09,0,1.38E+09,-3.95E-05,2.27E-08,-14.234,0.79059,-3.56E+08,1.73E+08,0,1.28E-02,0,2.36E+09,-9.62E-05,4.70E-05,,-1.35E-10
23,1,2.82E-06,-4.12E-05,3.49E-08,-4.12E-05,-3.92E-05,-3.99E-05,3.49E-08,-14.603,0.25945,-14.081,-12.102,-14.603,0.25945,-8.34E+07,1.40E+08,-8.34E+07,1.23E+08,-6.02E+07,1.40E+08,0,1.28E-02,1.88E-06,6.35E-03,0,1.28E-02,0,2.39E+09,8.06E+05,2.39E+09,0,1.37E+09,-4.12E-05,3.49E-08,-14.603,0.25945,-8.34E+07,1.40E+08,0,1.28E-02,0,2.39E+09,-3.77E-05,5.55E-05,,-1.41E-10
24,1,2.95E-06,-4.30E-05,3.17E-08,-4.30E-05,-4.08E-05,-4.16E-05,3.17E-08,-14.217,0.26808,-14.049,-10.629,-14.217,0.26808,-1.74E+08,2.84E+08,-1.07E+08,2.78E+08,-1.74E+08,2.84E+08,0,1.28E-02,1.48E-06,6.26E-03,0,1.28E-02,0,2.52E+09,3.24E+05,2.52E+09,0,1.37E+09,-4.30E-05,3.17E-08,-14.217,0.26808,-1.74E+08,2.84E+08,0,1.28E-02,0,2.52E+09,-4.83E-05,1.26E-04,,-1.48E-10
25,1,3.08E-06,-4.47E-05,2.81E-08,-4.47E-05,-4.25E-05,-4.32E-05,2.81E-08,-13.693,0.2541,-13.589,-11.596,-13.693,0.2541,-6.95E+07,2.29E+08,-6.95E+07,4.56E+07,-6.86E+07,2.29E+08,0,1.28E-02,1.97E-06,6.00E-03,0,1.28E-02,0,2.59E+09,6.10E+05,2.59E+09,0,1.36E+09,-4.47E-05,2.81E-08,-13.693,0.2541,-6.95E+07,2.29E+08,0,1.28E-02,0,2.59E+09,-3.14E-05,2.06E-05,,-1.65E-10
26,1,3.21E-06,-4.65E-05,2.38E-08,-4.65E-05,-4.42E-05,-4.49E-05,2.38E-08,-15.625,0.34144,-15.625,-11.202,-13.936,0.34144,-4.46E+08,3.55E+08,-3.22E+08,3.55E+08,-4.46E+08,1.36E+08,0,1.28E-02,3.14E-06,6.22E-03,0,1.28E-02,0,2.70E+09,1.33E+06,2.70E+09,0,1.36E+09,-4.65E-05,2.38E-08,-15.625,0.34144,-4.46E+08,3.55E+08,0,1.28E-02,0,2.70E+09,-1.45E-04,1.60E-04,,-1.67E-10
27,1,3.34E-06,-4.82E-05,3.11E-08,-4.82E-05,-4.58E-05,-4.64E-05,3.11E-08,-15.718,0.89398,-13.281,-11.066,-15.718,0.89398,-9.07E+07,1.07E+08,-9.07E+07,1.07E+08,-6.57E+07,7.00E+07,0,1.28E-02,2.06E-06,6.35E-03,0,1.28E-02,0,2.76E+09,8.05E+05,2.76E+09,0,1.37E+09,-4.82E-05,3.11E-08,-15.718,0.89398,-9.07E+07,1.07E+08,0,1.28E-02,0,2.76E+09,-4.10E-05,4.83E-05,,-1.88E-10
28,1,3.46E-06,-4.98E-05,3.54E-08,-4.98E-05,-4.75E-05,-4.80E-05,3.54E-08,-14.429,0.68207,-13.197,-11.086,-14.429,0.68207,-6.68E+07,1.07E+08,-6.68E+07,1.07E+08,-6.17E+07,9.37E+07,0,1.28E-02,2.86E-06,6.63E-03,0,1.28E-02,0,2.83E+09,1.04E+06,2.83E+09,0,1.37E+09,-4.98E-05,3.54E-08,-14.429,0.68207,-6.68E+07,1.07E+08,0,1.28E-02,0,2.83E+09,-3.02E-05,4.83E-05,,-1.94E-10
29,1,3.59E-06,-5.15E-05,3.18E-08,-5.15E-05,-4.91E-05,-4.95E-05,3.18E-08,-13.429,1.2391,-13.242,-11.119,-13.429,1.2391,-2.27E+08,2.34E+08,-9.84E+07,1.27E+08,-2.27E+08,2.34E+08,0,1.28E-02,3.15E-06,7.16E-03,0,1.28E-02,0,2.82E+09,1.13E+06,2.82E+09,0,1.38E+09,-5.15E-05,3.18E-08,-13.429,1.2391,-2.27E+08,2.34E+08,0,1.28E-02,0,2.82E+09,-4.44E-05,5.73E-05,,-2.00E-10
30,1,3.72E-06,-5.31E-05,2.76E-08,-5.31E-05,-5.07E-05,-5.11E-05,2.76E-08,-14.373,0.42696,-12.984,-10.693,-14.373,0.42696,-7.54E+07,1.12E+08,-7.00E+07,1.12E+08,-7.54E+07,8.85E+07,0,1.28E-02,3.85E-06,7.44E-03,0,1.28E-02,0,2.80E+09,1.46E+06,2.80E+09,0,1.39E+09,-5.31E-05,2.76E-08,-14.373,0.42696,-7.54E+07,1.12E+08,0,1.28E-02,0,2.80E+09,-3.16E-05,5.06E-05,,-2.08E-10
31,1,3.85E-06,-5.47E-05,3.86E-08,-5.47E-05,-5.22E-05,-5.27E-05,3.86E-08,-12.767,0.31466,-12.767,-11.171,-12.483,0.31466,-5.65E+07,1.18E+08,-5.65E+07,7.21E+07,-4.63E+07,1.18E+08,0,1.28E-02,2.98E-06,7.62E-03,0,1.28E-02,0,2.77E+09,1.26E+06,2.77E+09,0,1.39E+09,-5.47E-05,3.86E-08,-12.767,0.31466,-5.65E+07,1.18E+08,0,1.28E-02,0,2.77E+09,-2.55E-05,3.26E-05,,-2.14E-10
32,1,3.98E-06,-5.63E-05,4.58E-08,-5.63E-05,-5.38E-05,-5.42E-05,4.58E-08,-12.639,0.55646,-12.356,-11.391,-12.639,0.55646,-5.79E+07,6.95E+07,-5.56E+07,6.95E+07,-5.79E+07,4.55E+07,0,1.28E-02,2.86E-06,7.72E-03,0,1.28E-02,0,2.74E+09,1.16E+06,2.74E+09,0,1.39E+09,-5.63E-05,4.58E-08,-12.639,0.55646,-5.79E+07,6.95E+07,0,1.28E-02,0,2.74E+09,-2.51E-05,3.14E-05,,-2.18E-10
33,1,4.11E-06,-5.79E-05,4.68E-08,-5.79E-05,-5.53E-05,-5.57E-05,4.68E-08,-12.382,2.0499,-12.264,-11.028,-12.382,2.0499,-5.42E+07,4.10E+07,-5.42E+07,4.10E+07,-2.43E+07,3.33E+07,0,1.28E-02,3.45E-06,7.87E-03,0,1.28E-02,0,2.70E+09,1.29E+06,2.70E+09,0,1.40E+09,-5.79E-05,4.68E-08,-12.382,2.0499,-5.42E+07,4.10E+07,0,1.28E-02,0,2.70E+09,-2.45E-05,1.85E-05,,-2.22E-10
34,1,4.23E-06,-5.94E-05,3.60E-08,-5.94E-05,-5.68E-05,-5.71E-05,3.60E-08,-13.755,1.5432,-12.148,-11.226,-13.755,1.5432,-4.56E+07,5.91E+07,-4.56E+07,5.91E+07,-2.15E+07,2.86E+07,0,1.28E-02,4.45E-06,8.00E-03,0,1.28E-02,0,2.73E+09,1.69E+06,2.73E+09,0,1.40E+09,-5.94E-05,3.60E-08,-13.755,1.5432,-4.56E+07,5.91E+07,0,1.28E-02,0,2.73E+09,-2.06E-05,2.67E-05,,-2.25E-10
35,1,4.36E-06,-6.09E-05,3.75E-08,-6.09E-05,-5.83E-05,-5.85E-05,3.75E-08,-13.821,1.8707,-11.742,-10.876,-13.821,1.8707,-4.52E+07,4.16E+07,-4.52E+07,4.16E+07,-1.77E+07,2.11E+07,0,1.29E-02,4.06E-06,8.14E-03,0,1.29E-02,0,2.77E+09,1.57E+06,2.77E+09,0,1.40E+09,-6.09E-05,3.75E-08,-13.821,1.8707,-4.52E+07,4.16E+07,0,1.29E-02,0,2.77E+09,-2.04E-05,1.88E-05,,-2.28E-10
36,1,4.49E-06,-6.24E-05,4.16E-08,-6.24E-05,-5.97E-05,-5.98E-05,4.16E-08,-13.733,2.3402,-11.49,-10.873,-13.733,2.3402,-3.10E+07,5.32E+07,-3.10E+07,5.32E+07,-1.72E+07,1.91E+07,0,1.29E-02,2.81E-06,8.28E-03,0,1.29E-02,0,2.80E+09,1.05E+06,2.80E+09,0,1.40E+09,-6.24E-05,4.16E-08,-13.733,2.3402,-3.10E+07,5.32E+07,0,1.29E-02,0,2.80E+09,-1.40E-05,2.40E-05,,-2.31E-10
37,1,4.62E-06,-6.39E-05,3.77E-08,-6.39E-05,-6.11E-05,-6.12E-05,3.77E-08,-13.469,2.5133,-11.254,-10.622,-13.469,2.5133,-3.01E+07,3.04E+07,-3.01E+07,3.04E+07,-1.56E+07,1.49E+07,0,1.29E-02,4.01E-06,8.40E-03,0,1.29E-02,0,2.82E+09,1.65E+06,2.82E+09,0,1.40E+09,-6.39E-05,3.77E-08,-13.469,2.5133,-3.01E+07,3.04E+07,0,1.29E-02,0,2.82E+09,-1.36E-05,1.37E-05,,-2.34E-10
38,1,4.75E-06,-6.53E-05,3.30E-08,-6.53E-05,-6.25E-05,-6.25E-05,3.30E-08,-13.075,1.7197,-11.046,-10.599,-13.075,1.7197,-1.72E+07,4.00E+07,-1.72E+07,4.00E+07,-1.66E+07,1.19E+07,0,1.29E-02,4.15E-06,8.51E-03,0,1.29E-02,0,2.84E+09,1.76E+06,2.84E+09,0,1.39E+09,-6.53E-05,3.30E-08,-13.075,1.7197,-1.72E+07,4.00E+07,0,1.29E-02,0,2.84E+09,-7.77E-06,1.81E-05,,-2.35E-10
39,1,4.88E-06,-6.67E-05,4.18E-08,-6.67E-05,-6.39E-05,-6.37E-05,4.18E-08,-12.62,1.0741,-10.824,-10.383,-12.62,1.0741,-2.31E+07,2.64E+07,-2.31E+07,2.64E+07,-1.37E+07,1.78E+07,0,1.29E-02,3.94E-06,8.62E-03,0,1.29E-02,0,2.86E+09,1.63E+06,2.86E+09,0,1.39E+09,-6.67E-05,4.18E-08,-12.62,1.0741,-2.31E+07,2.64E+07,0,1.29E-02,0,2.86E+09,-1.04E-05,1.19E-05,,-2.38E-10
40,1,5.00E-06,-6.80E-05,4.90E-08,-6.80E-05,-6.52E-05,-6.50E-05,4.90E-08,-11.46,1.0457,-11.178,-8.0964,-11.46,1.0457,-9.62E+07,1.63E+08,-3.88E+07,1.63E+08,-9.62E+07,6.64E+07,0,1.29E-02,2.89E-06,8.71E-03,0,1.29E-02,0,2.89E+09,9.03E+05,2.89E+09,0,1.39E+09,-6.80E-05,4.90E-08,-11.46,1.0457,-9.62E+07,1.63E+08,0,1.29E-02,0,2.89E+09,-1.75E-05,7.36E-05,,-2.39E-10
41,1,5.13E-06,-6.94E-05,3.87E-08,-6.94E-05,-6.65E-05,-6.63E-05,3.87E-08,-10.643,1.3373,-10.612,-9.0413,-10.643,1.3373,-1.08E+08,7.51E+07,-1.08E+08,4.37E+07,-3.95E+07,7.51E+07,0,1.29E-02,3.15E-06,8.73E-03,0,1.29E-02,0,2.90E+09,1.15E+06,2.90E+09,0,1.40E+09,-6.94E-05,3.87E-08,-10.643,1.3373,-1.08E+08,7.51E+07,0,1.29E-02,0,2.90E+09,-4.88E-05,1.97E-05,,-2.49E-10
42,1,5.26E-06,-7.07E-05,3.61E-08,-7.07E-05,-6.78E-05,-6.76E-05,3.61E-08,-10.495,0.8877,-10.196,-9.3456,-10.495,0.8877,-3.73E+07,5.30E+07,-3.73E+07,4.65E+07,-3.06E+07,5.30E+07,0,1.29E-02,4.43E-06,8.65E-03,0,1.29E-02,0,2.87E+09,1.41E+06,2.87E+09,0,1.40E+09,-7.07E-05,3.61E-08,-10.495,0.8877,-3.73E+07,5.30E+07,0,1.29E-02,0,2.87E+09,-1.68E-05,2.10E-05,,-2.51E-10
43,1,5.39E-06,-7.20E-05,3.57E-08,-7.20E-05,-6.91E-05,-6.88E-05,3.57E-08,-9.9257,1.1107,-9.9257,-9.1146,-9.8571,1.1107,-3.70E+07,5.11E+07,-3.39E+07,5.11E+07,-3.70E+07,2.51E+07,0,1.29E-02,5.37E-06,8.38E-03,0,1.29E-02,0,2.77E+09,2.32E+06,2.77E+09,0,1.40E+09,-7.20E-05,3.57E-08,-9.9257,1.1107,-3.70E+07,5.11E+07,0,1.29E-02,0,2.77E+09,-1.53E-05,2.31E-05,,-2.54E-10
44,1,5.52E-06,-7.32E-05,5.75E-08,-7.32E-05,-7.03E-05,-7.00E-05,5.75E-08,-9.8961,1.2602,-9.7533,-8.9578,-9.8961,1.2602,-4.07E+07,4.42E+07,-4.07E+07,4.42E+07,-1.54E+07,2.10E+07,0,1.29E-02,4.11E-06,8.14E-03,0,1.29E-02,0,2.68E+09,1.60E+06,2.68E+09,0,1.40E+09,-7.32E-05,5.75E-08,-9.8961,1.2602,-4.07E+07,4.42E+07,0,1.29E-02,0,2.68E+09,-1.84E-05,2.00E-05,,-2.57E-10
45,1,5.65E-06,-7.44E-05,1.65E-07,-7.44E-05,-7.15E-05,-7.12E-05,1.65E-07,-9.8236,0.94367,-9.4369,-8.8302,-9.8236,0.94367,-3.60E+07,4.72E+07,-3.60E+07,4.72E+07,-1.08E+07,1.56E+07,0,1.29E-02,3.19E-06,7.95E-03,0,1.29E-02,0,2.61E+09,1.17E+06,2.61E+09,0,1.41E+09,-7.44E-05,1.65E-07,-9.8236,0.94367,-3.60E+07,4.72E+07,0,1.29E-02,0,2.61E+09,-1.63E-05,2.13E-05,,-2.60E-10
46,1,5.78E-06,-7.56E-05,2.68E-07,-7.56E-05,-7.27E-05,-7.23E-05,2.68E-07,-9.5283,0.90429,-9.1629,-8.5756,-9.5283,0.90429,-2.04E+07,2.08E+07,-2.04E+07,2.08E+07,-1.26E+07,1.16E+07,0,1.29E-02,4.48E-06,7.80E-03,0,1.29E-02,0,2.56E+09,1.67E+06,2.56E+09,0,1.41E+09,-7.56E-05,2.68E-07,-9.5283,0.90429,-2.04E+07,2.08E+07,0,1.29E-02,0,2.56E+09,-9.21E-06,9.39E-06,,-2.62E-10
47,1,5.90E-06,-7.68E-05,3.89E-07,-7.68E-05,-7.38E-05,-7.35E-05,3.89E-07,-9.1734,0.97495,-8.9354,-8.3123,-9.1734,0.97495,-1.60E+07,2.55E+07,-1.60E+07,2.55E+07,-1.39E+07,9.49E+06,0,1.29E-02,4.93E-06,7.83E-03,0,1.29E-02,0,2.50E+09,2.12E+06,2.50E+09,0,1.41E+09,-7.68E-05,3.89E-07,-9.1734,0.97495,-1.60E+07,2.55E+07,0,1.29E-02,0,2.50E+09,-7.22E-06,1.15E-05,,-2.64E-10
48,1,6.03E-06,-7.79E-05,4.85E-07,-7.79E-05,-7.49E-05,-7.45E-05,4.85E-07,-8.9641,1.2252,-8.6847,-8.1374,-8.9641,1.2252,-2.10E+07,2.68E+07,-2.10E+07,2.68E+07,-9.40E+06,1.17E+07,0,1.29E-02,4.31E-06,7.83E-03,0,1.29E-02,0,2.45E+09,1.82E+06,2.45E+09,0,1.41E+09,-7.79E-05,4.85E-07,-8.9641,1.2252,-2.10E+07,2.68E+07,0,1.29E-02,0,2.45E+09,-9.48E-06,1.21E-05,,-2.65E-10
49,1,6.16E-06,-7.90E-05,6.02E-07,-7.90E-05,-7.60E-05,-7.56E-05,6.02E-07,-8.7526,1.093,-8.4315,-7.9253,-8.7526,1.093,-1.92E+07,2.84E+07,-1.92E+07,2.84E+07,-1.38E+07,1.15E+07,0,1.29E-02,3.26E-06,7.84E-03,0,1.29E-02,0,2.40E+09,1.24E+06,2.40E+09,0,1.41E+09,-7.90E-05,6.02E-07,-8.7526,1.093,-1.92E+07,2.84E+07,0,1.29E-02,0,2.40E+09,-8.67E-06,1.28E-05,,-2.67E-10
50,1,6.29E-06,-8.00E-05,7.23E-07,-8.00E-05,-7.71E-05,-7.66E-05,7.23E-07,-8.4721,0.96238,-8.1802,-7.6895,-8.4721,0.96238,-1.19E+07,1.36E+07,-1.19E+07,1.36E+07,-1.09E+07,9.35E+06,0,1.29E-02,3.78E-06,7.83E-03,0,1.29E-02,0,2.40E+09,1.32E+06,2.40E+09,0,1.41E+09,-8.00E-05,7.23E-07,-8.4721,0.96238,-1.19E+07,1.36E+07,0,1.29E-02,0,2.40E+09,-5.37E-06,6.14E-06,,-2.68E-10
51,1,6.42E-06,-8.11E-05,8.22E-07,-8.11E-05,-7.81E-05,-7.76E-05,8.22E-07,-8.2653,1.0719,-7.9459,-7.5942,-8.2653,1.0719,-1.28E+07,2.36E+07,-1.28E+07,2.36E+07,-9.02E+06,1.21E+07,0,1.29E-02,4.68E-06,7.83E-03,0,1.29E-02,0,2.41E+09,1.73E+06,2.41E+09,0,1.41E+09,-8.11E-05,8.22E-07,-8.2653,1.0719,-1.28E+07,2.36E+07,0,1.29E-02,0,2.41E+09,-5.78E-06,1.07E-05,,-2.69E-10
52,1,6.55E-06,-8.21E-05,9.32E-07,-8.21E-05,-7.91E-05,-7.86E-05,9.32E-07,-8.2378,1.0673,-7.7238,-7.286,-8.2378,1.0673,-1.37E+07,1.52E+07,-1.37E+07,1.52E+07,-1.16E+07,8.55E+06,0,1.29E-02,4.54E-06,7.84E-03,0,1.29E-02,0,2.43E+09,1.71E+06,2.43E+09,0,1.41E+09,-8.21E-05,9.32E-07,-8.2378,1.0673,-1.37E+07,1.52E+07,0,1.29E-02,0,2.43E+09,-6.19E-06,6.86E-06,,-2.71E-10
53,1,6.67E-06,-8.31E-05,1.04E-06,-8.31E-05,-8.00E-05,-7.95E-05,1.04E-06,-7.7215,0.97016,-7.4589,-7.0549,-7.7215,0.97016,-9.32E+06,1.11E+07,-6.05E+06,1.11E+07,-9.32E+06,1.06E+07,0,1.29E-02,4.21E-06,7.84E-03,0,1.29E-02,0,2.44E+09,1.71E+06,2.44E+09,0,1.41E+09,-8.31E-05,1.04E-06,-7.7215,0.97016,-9.32E+06,1.11E+07,0,1.29E-02,0,2.44E+09,-2.73E-06,5.01E-06,,-2.71E-10
54,1,6.80E-06,-8.40E-05,1.18E-06,-8.40E-05,-8.10E-05,-8.04E-05,1.18E-06,-7.6588,1.2649,-7.1895,-6.8431,-7.6588,1.2649,-9.54E+06,1.24E+07,-6.75E+06,1.24E+07,-9.54E+06,8.86E+06,0,1.29E-02,4.73E-06,7.84E-03,0,1.29E-02,0,2.46E+09,1.79E+06,2.46E+09,0,1.41E+09,-8.40E-05,1.18E-06,-7.6588,1.2649,-9.54E+06,1.24E+07,0,1.29E-02,0,2.46E+09,-3.05E-06,5.60E-06,,-2.72E-10
55,1,6.93E-06,-8.49E-05,1.29E-06,-8.49E-05,-8.18E-05,-8.13E-05,1.29E-06,-7.2531,0.89468,-7.0439,-6.495,-7.2531,0.89468,-4.33E+07,2.17E+07,-4.33E+07,2.17E+07,-1.04E+07,9.20E+06,0,1.29E-02,4.95E-06,7.84E-03,0,1.29E-02,0,2.49E+09,2.04E+06,2.49E+09,0,1.41E+09,-8.49E-05,1.29E-06,-7.2531,0.89468,-4.33E+07,2.17E+07,0,1.29E-02,0,2.49E+09,-1.96E-05,9.80E-06,,-2.73E-10
56,1,7.06E-06,-8.58E-05,1.41E-06,-8.58E-05,-8.27E-05,-8.21E-05,1.41E-06,-6.9837,0.99138,-6.6844,-6.275,-6.9837,0.99138,-2.14E+07,2.69E+07,-2.14E+07,2.69E+07,-9.86E+06,1.07E+07,0,1.29E-02,4.68E-06,7.94E-03,0,1.29E-02,0,2.51E+09,1.99E+06,2.51E+09,0,1.41E+09,-8.58E-05,1.41E-06,-6.9837,0.99138,-2.14E+07,2.69E+07,0,1.29E-02,0,2.51E+09,-9.66E-06,1.21E-05,,-2.74E-10
57,1,7.19E-06,-8.66E-05,1.47E-06,-8.66E-05,-8.35E-05,-8.29E-05,1.47E-06,-6.8636,1.0966,-6.4185,-6.0262,-6.8636,1.0966,-3.50E+07,3.23E+07,-3.50E+07,3.23E+07,-1.02E+07,1.68E+07,0,1.29E-02,4.38E-06,8.05E-03,0,1.29E-02,0,2.54E+09,1.66E+06,2.54E+09,0,1.41E+09,-8.66E-05,1.47E-06,-6.8636,1.0966,-3.50E+07,3.23E+07,0,1.29E-02,0,2.54E+09,-1.58E-05,1.46E-05,,-2.76E-10
58,1,7.32E-06,-8.74E-05,1.58E-06,-8.74E-05,-8.43E-05,-8.37E-05,1.58E-06,-6.4982,1.0796,-6.1736,-5.7702,-6.4982,1.0796,-1.13E+07,2.77E+07,-1.13E+07,2.77E+07,-9.90E+06,1.05E+07,0,1.29E-02,3.54E-06,8.15E-03,0,1.29E-02,0,2.56E+09,1.11E+06,2.56E+09,0,1.41E+09,-8.74E-05,1.58E-06,-6.4982,1.0796,-1.13E+07,2.77E+07,0,1.29E-02,0,2.56E+09,-5.10E-06,1.25E-05,,-2.77E-10
59,1,7.44E-06,-8.82E-05,1.69E-06,-8.82E-05,-8.50E-05,-8.44E-05,1.69E-06,-7.0333,0.73381,-5.9101,-5.1021,-7.0333,0.73381,-4.83E+07,6.78E+07,-4.83E+07,2.79E+07,-4.22E+07,6.78E+07,0,1.29E-02,4.76E-06,8.26E-03,0,1.29E-02,0,2.57E+09,1.82E+06,2.57E+09,0,1.41E+09,-8.82E-05,1.69E-06,-7.0333,0.73381,-4.83E+07,6.78E+07,0,1.29E-02,0,2.57E+09,-2.18E-05,1.26E-05,,-2.79E-10
60,1,7.57E-06,-8.89E-05,1.75E-06,-8.89E-05,-8.57E-05,-8.52E-05,1.75E-06,-6.5693,0.60505,-5.6413,-4.99,-6.5693,0.60505,-1.33E+07,2.66E+07,-1.03E+07,1.58E+07,-1.33E+07,2.66E+07,0,1.29E-02,5.67E-06,8.43E-03,0,1.29E-02,0,2.56E+09,2.40E+06,2.56E+09,0,1.41E+09,-8.89E-05,1.75E-06,-6.5693,0.60505,-1.33E+07,2.66E+07,0,1.29E-02,0,2.56E+09,-4.65E-06,7.13E-06,,-2.81E-10
61,1,7.70E-06,-8.96E-05,1.79E-06,-8.96E-05,-8.64E-05,-8.58E-05,1.79E-06,-6.2606,0.39767,-5.3816,-4.7879,-6.2606,0.39767,-1.91E+07,3.09E+07,-1.91E+07,2.52E+07,-8.24E+06,3.09E+07,0,1.29E-02,4.78E-06,8.58E-03,0,1.29E-02,0,2.55E+09,1.82E+06,2.55E+09,0,1.41E+09,-8.96E-05,1.79E-06,-6.2606,0.39767,-1.91E+07,3.09E+07,0,1.29E-02,0,2.55E+09,-8.62E-06,1.14E-05,,-2.82E-10
62,1,7.83E-06,-9.03E-05,1.83E-06,-9.03E-05,-8.70E-05,-8.65E-05,1.83E-06,-6.0108,0.58054,-5.122,-4.4776,-6.0108,0.58054,-1.41E+07,6.86E+07,-1.41E+07,6.86E+07,-7.24E+06,1.73E+07,0,1.29E-02,3.66E-06,8.72E-03,0,1.29E-02,0,2.54E+09,1.13E+06,2.54E+09,0,1.41E+09,-9.03E-05,1.83E-06,-6.0108,0.58054,-1.41E+07,6.86E+07,0,1.29E-02,0,2.54E+09,-6.37E-06,3.10E-05,,-2.83E-10
63,1,7.96E-06,-9.09E-05,1.93E-06,-9.09E-05,-8.76E-05,-8.71E-05,1.93E-06,-5.6158,0.84654,-4.8345,-1.8736,-5.6158,0.84654,-1.20E+08,1.96E+08,-3.89E+07,1.96E+08,-1.20E+08,2.50E+07,0,1.29E-02,4.27E-06,8.85E-03,0,1.29E-02,0,2.58E+09,1.81E+06,2.58E+09,0,1.41E+09,-9.09E-05,1.93E-06,-5.6158,0.84654,-1.20E+08,1.96E+08,0,1.29E-02,0,2.58E+09,-1.76E-05,8.85E-05,,-2.87E-10
64,1,8.09E-06,-9.15E-05,1.90E-06,-9.15E-05,-8.82E-05,-8.77E-05,1.90E-06,-5.1322,0.77718,-4.5744,-3.8331,-5.1322,0.77718,-5.68E+07,4.69E+07,-5.68E+07,3.51E+07,-3.92E+07,4.69E+07,0,1.29E-02,5.92E-06,8.97E-03,0,1.29E-02,0,2.63E+09,2.36E+06,2.63E+09,0,1.41E+09,-9.15E-05,1.90E-06,-5.1322,0.77718,-5.68E+07,4.69E+07,0,1.29E-02,0,2.63E+09,-2.56E-05,1.58E-05,,-2.99E-10
65,1,8.21E-06,-9.21E-05,1.81E-06,-9.21E-05,-8.87E-05,-8.82E-05,1.81E-06,-4.6318,0.67376,-4.2909,-3.5501,-4.6318,0.67376,-6.10E+07,5.34E+07,-1.57E+07,5.34E+07,-6.10E+07,3.75E+07,0,1.29E-02,5.75E-06,9.07E-03,0,1.29E-02,0,2.65E+09,2.25E+06,2.65E+09,0,1.41E+09,-9.21E-05,1.81E-06,-4.6318,0.67376,-6.10E+07,5.34E+07,0,1.29E-02,0,2.65E+09,-7.09E-06,2.41E-05,,-3.00E-10
66,1,8.34E-06,-9.26E-05,1.59E-06,-9.26E-05,-8.92E-05,-8.87E-05,1.59E-06,-4.197,0.2815,-3.9892,-3.1653,-4.197,0.2815,-2.24E+07,2.57E+07,-2.24E+07,2.57E+07,-1.70E+07,1.51E+07,0,1.29E-02,4.40E-06,9.08E-03,0,1.29E-02,0,2.66E+09,1.58E+06,2.66E+09,0,1.41E+09,-9.26E-05,1.59E-06,-4.197,0.2815,-2.24E+07,2.57E+07,0,1.29E-02,0,2.66E+09,-1.01E-05,1.16E-05,,-3.04E-10
67,1,8.47E-06,-9.31E-05,1.32E-06,-9.31E-05,-8.96E-05,-8.92E-05,1.32E-06,-3.7964,0.33353,-3.7192,-3.0109,-3.7964,0.33353,-2.53E+07,1.52E+07,-2.53E+07,1.52E+07,-2.05E+07,1.44E+07,0,1.29E-02,4.16E-06,9.10E-03,0,1.29E-02,0,2.66E+09,1.68E+06,2.66E+09,0,1.41E+09,-9.31E-05,1.32E-06,-3.7964,0.33353,-2.53E+07,1.52E+07,0,1.29E-02,0,2.66E+09,-1.14E-05,6.86E-06,,-3.05E-10
68,1,8.60E-06,-9.36E-05,1.06E-06,-9.36E-05,-9.00E-05,-8.96E-05,1.06E-06,-3.456,0.18993,-3.456,-2.7656,-3.4278,0.18993,-1.32E+07,2.03E+07,-1.32E+07,2.03E+07,-1.12E+07,1.88E+07,0,1.29E-02,4.38E-06,9.10E-03,0,1.29E-02,0,2.65E+09,1.56E+06,2.65E+09,0,1.41E+09,-9.36E-05,1.06E-06,-3.456,0.18993,-1.32E+07,2.03E+07,0,1.29E-02,0,2.65E+09,-5.96E-06,9.17E-06,,-3.06E-10
69,1,8.73E-06,-9.40E-05,8.59E-07,-9.40E-05,-9.04E-05,-9.00E-05,8.59E-07,-3.8458,0.25625,-3.189,-2.4908,-3.8458,0.25625,-1.51E+07,2.06E+07,-1.50E+07,2.01E+07,-1.51E+07,2.06E+07,0,1.29E-02,5.67E-06,9.09E-03,0,1.29E-02,0,2.64E+09,2.18E+06,2.64E+09,0,1.41E+09,-9.40E-05,8.59E-07,-3.8458,0.25625,-1.51E+07,2.06E+07,0,1.29E-02,0,2.64E+09,-6.77E-06,9.08E-06,,-3.07E-10
70,1,8.86E-06,-9.44E-05,7.13E-07,-9.44E-05,-9.08E-05,-9.03E-05,7.13E-07,-3.2219,0.42454,-2.8886,-2.208,-3.2219,0.42454,-3.66E+07,1.85E+07,-3.66E+07,1.85E+07,-8.75E+06,1.68E+07,0,1.29E-02,5.27E-06,9.01E-03,0,1.29E-02,0,2.63E+09,1.98E+06,2.63E+09,0,1.41E+09,-9.44E-05,7.13E-07,-3.2219,0.42454,-3.66E+07,1.85E+07,0,1.29E-02,0,2.63E+09,-1.65E-05,8.35E-06,,-3.08E-10
71,1,8.98E-06,-9.47E-05,5.78E-07,-9.47E-05,-9.11E-05,-9.06E-05,5.78E-07,-3.086,0.49243,-2.58,-2.0434,-3.086,0.49243,-1.94E+07,1.69E+07,-1.94E+07,1.69E+07,-1.08E+07,8.55E+06,0,1.29E-02,4.72E-06,8.97E-03,0,1.29E-02,0,2.62E+09,1.73E+06,2.62E+09,0,1.41E+09,-9.47E-05,5.78E-07,-3.086,0.49243,-1.94E+07,1.69E+07,0,1.29E-02,0,2.62E+09,-8.76E-06,7.63E-06,,-3.09E-10
72,1,9.11E-06,-9.51E-05,4.59E-07,-9.51E-05,-9.13E-05,-9.09E-05,4.59E-07,-2.6939,0.41679,-2.2761,-1.7775,-2.6939,0.41679,-9.72E+06,2.27E+07,-9.72E+06,2.27E+07,-7.58E+06,1.10E+07,0,1.29E-02,4.98E-06,8.91E-03,0,1.29E-02,0,2.62E+09,2.04E+06,2.62E+09,0,1.41E+09,-9.51E-05,4.59E-07,-2.6939,0.41679,-9.72E+06,2.27E+07,0,1.29E-02,0,2.62E+09,-4.39E-06,1.03E-05,,-3.10E-10
73,1,9.24E-06,-9.53E-05,3.66E-07,-9.53E-05,-9.16E-05,-9.12E-05,3.66E-07,-2.0596,0.30286,-1.9877,-1.4578,-2.0596,0.30286,-3.23E+07,1.89E+07,-3.23E+07,1.89E+07,-1.01E+07,1.70E+07,0,1.29E-02,5.10E-06,8.88E-03,0,1.29E-02,0,2.62E+09,2.21E+06,2.62E+09,0,1.41E+09,-9.53E-05,3.66E-07,-2.0596,0.30286,-3.23E+07,1.89E+07,0,1.29E-02,0,2.62E+09,-1.46E-05,8.53E-06,,-3.12E-10
74,1,9.37E-06,-9.56E-05,3.09E-07,-9.56E-05,-9.18E-05,-9.14E-05,3.09E-07,-1.7587,0.23748,-1.6904,-1.2282,-1.7587,0.23748,-2.70E+07,1.19E+07,-2.70E+07,1.19E+07,-1.14E+07,1.11E+07,0,1.29E-02,5.48E-06,8.84E-03,0,1.29E-02,0,2.61E+09,2.06E+06,2.61E+09,0,1.41E+09,-9.56E-05,3.09E-07,-1.7587,0.23748,-2.70E+07,1.19E+07,0,1.29E-02,0,2.61E+09,-1.22E-05,5.37E-06,,-3.13E-10
75,1,9.50E-06,-9.58E-05,2.75E-07,-9.58E-05,-9.19E-05,-9.16E-05,2.75E-07,-1.4014,0.20604,-1.4014,-0.9404,-1.369,0.20604,-8.80E+06,2.28E+07,-6.86E+06,2.28E+07,-8.80E+06,9.35E+06,0,1.29E-02,4.88E-06,8.82E-03,0,1.29E-02,0,2.61E+09,1.80E+06,2.61E+09,0,1.41E+09,-9.58E-05,2.75E-07,-1.4014,0.20604,-8.80E+06,2.28E+07,0,1.29E-02,0,2.61E+09,-3.10E-06,1.03E-05,,-3.13E-10
76,1,9.63E-06,-9.59E-05,2.34E-07,-9.59E-05,-9.21E-05,-9.17E-05,2.34E-07,-1.09,0.18446,-1.09,-0.6361,-1.0662,0.18446,-9.71E+06,1.25E+07,-9.71E+06,1.25E+07,-5.75E+06,8.17E+06,0,1.29E-02,4.42E-06,8.83E-03,0,1.29E-02,0,2.61E+09,1.59E+06,2.61E+09,0,1.41E+09,-9.59E-05,2.34E-07,-1.09,0.18446,-9.71E+06,1.25E+07,0,1.29E-02,0,2.61E+09,-4.38E-06,5.64E-06,,-3.15E-10
77,1,9.76E-06,-9.60E-05,2.00E-07,-9.60E-05,-9.22E-05,-9.18E-05,2.00E-07,-0.79281,0.25081,-0.79281,-0.35677,-0.62053,0.25081,-9.51E+07,2.21E+07,-9.51E+07,2.21E+07,-8.96E+06,1.50E+07,0,1.29E-02,5.46E-06,8.82E-03,0,1.29E-02,0,2.61E+09,2.17E+06,2.61E+09,0,1.40E+09,-9.60E-05,2.00E-07,-0.79281,0.25081,-9.51E+07,2.21E+07,0,1.29E-02,0,2.61E+09,-4.29E-05,9.98E-06,,-3.16E-10
78,1,9.88E-06,-9.61E-05,2.12E-07,-9.61E-05,-9.22E-05,-9.18E-05,2.12E-07,-0.5155,0.38622,-0.5155,-6.76E-02,-0.35116,0.38622,-6.26E+06,3.46E+07,-6.26E+06,3.46E+07,-4.93E+06,8.17E+06,0,1.29E-02,5.34E-06,8.81E-03,0,1.29E-02,0,2.61E+09,2.01E+06,2.61E+09,0,1.41E+09,-9.61E-05,2.12E-07,-0.5155,0.38622,-6.26E+06,3.46E+07,0,1.29E-02,0,2.61E+09,-2.83E-06,1.56E-05,,-3.17E-10
79,1,1.00E-05,-9.62E-05,2.66E-07,-9.62E-05,-9.22E-05,-9.18E-05,2.66E-07,-0.23036,0.47015,-0.23036,0.23415,-0.19626,0.47015,-2.09E+07,9.08E+06,-2.09E+07,9.08E+06,-7.55E+06,7.91E+06,0,1.29E-02,4.94E-06,8.80E-03,0,1.29E-02,0,2.61E+09,1.79E+06,2.61E+09,0,1.41E+09,-9.62E-05,2.66E-07,-0.23036,0.47015,-2.09E+07,9.08E+06,0,1.29E-02,0,2.61E+09,-9.44E-06,4.10E-06,,-3.19E-10
80,1,1.01E-05,-9.62E-05,2.89E-07,-9.62E-05,-9.22E-05,-9.18E-05,2.89E-07,-0.19692,0.54074,6.58E-02,0.54074,-0.19692,0.49969,-3.44E+07,1.46E+07,-3.44E+07,7.67E+06,-7.99E+06,1.46E+07,0,1.29E-02,5.10E-06,8.80E-03,0,1.29E-02,0,2.60E+09,1.86E+06,2.60E+09,0,1.40E+09,-9.62E-05,2.89E-07,-0.19692,0.54074,-3.44E+07,1.46E+07,0,1.29E-02,0,2.60E+09,-1.55E-05,3.46E-06,,-3.19E-10
81,1,1.03E-05,-9.61E-05,3.15E-07,-9.61E-05,-9.21E-05,-9.18E-05,3.15E-07,-0.20945,0.84921,0.38042,0.84921,-0.20945,0.60613,-6.31E+07,1.72E+07,-6.31E+07,1.72E+07,-6.79E+06,7.85E+06,0,1.28E-02,6.43E-06,8.77E-03,0,1.28E-02,0,2.59E+09,2.60E+06,2.59E+09,0,1.40E+09,-9.61E-05,3.15E-07,-0.20945,0.84921,-6.31E+07,1.72E+07,0,1.28E-02,0,2.59E+09,-2.85E-05,7.77E-06,,-3.20E-10
82,1,1.04E-05,-9.61E-05,3.43E-07,-9.61E-05,-9.21E-05,-9.17E-05,3.43E-07,-0.21486,1.1432,0.44135,1.1432,-0.21486,0.8536,-7.16E+07,3.82E+07,-7.16E+07,3.82E+07,-1.54E+07,7.28E+06,0,1.27E-02,5.69E-06,8.71E-03,0,1.27E-02,0,2.57E+09,2.33E+06,2.57E+09,0,1.39E+09,-9.61E-05,3.43E-07,-0.21486,1.1432,-7.16E+07,3.82E+07,0,1.27E-02,0,2.57E+09,-3.23E-05,1.72E-05,,-3.21E-10
83,1,1.05E-05,-9.60E-05,4.04E-07,-9.60E-05,-9.20E-05,-9.16E-05,4.04E-07,-0.22478,1.4332,0.38398,1.4332,-0.22478,1.0872,-6.09E+07,9.81E+07,-6.09E+07,9.81E+07,-1.29E+07,1.07E+07,0,1.26E-02,4.92E-06,8.64E-03,0,1.26E-02,0,2.55E+09,1.80E+06,2.55E+09,0,1.38E+09,-9.60E-05,4.04E-07,-0.22478,1.4332,-6.09E+07,9.81E+07,0,1.26E-02,0,2.55E+09,-2.75E-05,4.43E-05,,-3.22E-10
84,1,1.07E-05,-9.58E-05,4.73E-07,-9.58E-05,-9.18E-05,-9.14E-05,4.73E-07,-0.19021,1.7255,0.96089,1.7255,-0.19021,1.3571,-6.44E+07,6.28E+07,-6.44E+07,6.28E+07,-6.74E+06,1.27E+07,0,1.25E-02,3.94E-06,8.57E-03,0,1.25E-02,0,2.53E+09,1.63E+06,2.53E+09,0,1.37E+09,-9.58E-05,4.73E-07,-0.19021,1.7255,-6.44E+07,6.28E+07,0,1.25E-02,0,2.53E+09,-2.91E-05,2.84E-05,,-3.31E-10
85,1,1.08E-05,-9.56E-05,5.84E-07,-9.56E-05,-9.16E-05,-9.13E-05,5.84E-07,-0.2169,2.0131,1.4556,2.0131,-0.2169,1.6704,-1.25E+07,3.45E+07,-1.25E+07,3.45E+07,-7.52E+06,1.48E+07,0,1.25E-02,4.78E-06,8.50E-03,0,1.25E-02,0,2.51E+09,1.79E+06,2.51E+09,0,1.35E+09,-9.56E-05,5.84E-07,-0.2169,2.0131,-1.25E+07,3.45E+07,0,1.25E-02,0,2.51E+09,-5.64E-06,1.56E-05,,-3.34E-10
86,1,1.09E-05,-9.54E-05,7.21E-07,-9.54E-05,-9.14E-05,-9.11E-05,7.21E-07,-0.1938,2.2983,1.7148,2.2983,-0.1938,1.9705,-2.01E+07,3.59E+07,-2.01E+07,3.59E+07,-5.11E+06,8.64E+06,0,1.24E-02,4.65E-06,8.42E-03,0,1.24E-02,0,2.48E+09,1.74E+06,2.48E+09,0,1.34E+09,-9.54E-05,7.21E-07,-0.1938,2.2983,-2.01E+07,3.59E+07,0,1.24E-02,0,2.48E+09,-9.08E-06,1.62E-05,,-3.35E-10
87,1,1.10E-05,-9.52E-05,8.80E-07,-9.52E-05,-9.12E-05,-9.08E-05,8.80E-07,-0.18537,2.5605,1.9251,2.5605,-0.18537,2.1761,-3.30E+07,1.74E+07,-3.30E+07,1.74E+07,-7.84E+06,6.15E+06,0,1.23E-02,4.91E-06,8.33E-03,0,1.23E-02,0,2.46E+09,1.88E+06,2.46E+09,0,1.33E+09,-9.52E-05,8.80E-07,-0.18537,2.5605,-3.30E+07,1.74E+07,0,1.23E-02,0,2.46E+09,-1.49E-05,7.86E-06,,-3.37E-10
88,1,1.12E-05,-9.49E-05,1.09E-06,-9.49E-05,-9.09E-05,-9.05E-05,1.09E-06,-0.15576,2.8162,1.8111,2.8162,-0.15576,2.3485,-2.47E+07,2.86E+07,-2.47E+07,2.86E+07,-2.12E+07,1.33E+07,0,1.21E-02,4.79E-06,8.21E-03,0,1.21E-02,0,2.42E+09,1.82E+06,2.42E+09,0,1.30E+09,-9.49E-05,1.09E-06,-0.15576,2.8162,-2.47E+07,2.86E+07,0,1.21E-02,0,2.42E+09,-1.12E-05,1.29E-05,,-3.39E-10
89,1,1.13E-05,-9.45E-05,1.31E-06,-9.45E-05,-9.06E-05,-9.03E-05,1.31E-06,-0.17772,3.0934,2.3021,3.0934,-0.17772,2.6141,-1.64E+07,3.11E+07,-1.64E+07,3.11E+07,-5.51E+06,1.06E+07,0,1.20E-02,3.60E-06,8.08E-03,0,1.20E-02,0,2.37E+09,1.50E+06,2.37E+09,0,1.29E+09,-9.45E-05,1.31E-06,-0.17772,3.0934,-1.64E+07,3.11E+07,0,1.20E-02,0,2.37E+09,-7.41E-06,1.40E-05,,-3.40E-10
90,1,1.14E-05,-9.42E-05,1.57E-06,-9.42E-05,-9.03E-05,-8.99E-05,1.57E-06,-0.17377,3.3604,2.5612,3.3604,-0.17377,2.9089,-2.30E+07,6.32E+07,-2.30E+07,6.32E+07,-5.19E+06,1.09E+07,0,1.20E-02,4.32E-06,7.93E-03,0,1.20E-02,0,2.32E+09,1.86E+06,2.32E+09,0,1.26E+09,-9.42E-05,1.57E-06,-0.17377,3.3604,-2.30E+07,6.32E+07,0,1.20E-02,0,2.32E+09,-1.04E-05,2.85E-05,,-3.41E-10
91,1,1.16E-05,-9.38E-05,1.85E-06,-9.38E-05,-9.00E-05,-8.96E-05,1.85E-06,-0.1922,3.6331,2.7431,3.6331,-0.1922,3.1389,-1.35E+07,3.60E+07,-1.01E+07,3.60E+07,-1.35E+07,8.72E+06,0,1.19E-02,4.67E-06,7.79E-03,0,1.19E-02,0,2.27E+09,2.03E+06,2.27E+09,0,1.24E+09,-9.38E-05,1.85E-06,-0.1922,3.6331,-1.35E+07,3.60E+07,0,1.19E-02,0,2.27E+09,-4.56E-06,1.63E-05,,-3.47E-10
92,1,1.17E-05,-9.34E-05,2.15E-06,-9.34E-05,-8.96E-05,-8.92E-05,2.15E-06,-0.19378,3.8643,2.9228,3.8643,-0.19378,3.2762,-2.56E+07,4.51E+07,-2.56E+07,4.51E+07,-4.79E+06,8.05E+06,0,1.19E-02,4.44E-06,7.61E-03,0,1.19E-02,0,2.22E+09,1.74E+06,2.22E+09,0,1.22E+09,-9.34E-05,2.15E-06,-0.19378,3.8643,-2.56E+07,4.51E+07,0,1.19E-02,0,2.22E+09,-1.16E-05,2.04E-05,,-3.49E-10
93,1,1.18E-05,-9.29E-05,2.47E-06,-9.29E-05,-8.92E-05,-8.88E-05,2.47E-06,-0.13516,4.0814,3.0154,4.0814,-0.13516,3.4993,-1.88E+07,1.58E+07,-1.88E+07,1.58E+07,-1.16E+07,1.01E+07,0,1.19E-02,3.19E-06,7.44E-03,0,1.19E-02,0,2.16E+09,1.21E+06,2.16E+09,0,1.20E+09,-9.29E-05,2.47E-06,-0.13516,4.0814,-1.88E+07,1.58E+07,0,1.19E-02,0,2.16E+09,-8.49E-06,7.13E-06,,-3.51E-10
94,1,1.19E-05,-9.25E-05,2.80E-06,-9.25E-05,-8.88E-05,-8.84E-05,2.80E-06,-0.18696,4.3117,3.2477,4.3117,-0.18696,3.7262,-1.37E+07,3.82E+07,-1.37E+07,3.82E+07,-6.45E+06,7.46E+06,0,1.18E-02,2.49E-06,7.26E-03,0,1.18E-02,0,2.09E+09,1.07E+06,2.09E+09,0,1.19E+09,-9.25E-05,2.80E-06,-0.18696,4.3117,-1.37E+07,3.82E+07,0,1.18E-02,0,2.09E+09,-6.19E-06,1.72E-05,,-3.51E-10
95,1,1.21E-05,-9.19E-05,3.14E-06,-9.19E-05,-8.83E-05,-8.79E-05,3.14E-06,-0.18762,4.5032,3.4507,4.5032,-0.18762,3.8814,-1.24E+07,4.21E+07,-1.24E+07,4.21E+07,-5.80E+06,7.14E+06,0,1.18E-02,3.24E-06,7.07E-03,0,1.18E-02,0,2.02E+09,1.21E+06,2.02E+09,0,1.18E+09,-9.19E-05,3.14E-06,-0.18762,4.5032,-1.24E+07,4.21E+07,0,1.18E-02,0,2.02E+09,-5.60E-06,1.90E-05,,-3.55E-10
96,1,1.22E-05,-9.14E-05,3.44E-06,-9.14E-05,-8.79E-05,-8.75E-05,3.44E-06,-0.17237,4.7003,3.597,4.7003,-0.17237,3.9635,-7.42E+07,2.47E+07,-7.42E+07,2.47E+07,-8.98E+06,1.69E+07,0,1.17E-02,3.61E-06,6.82E-03,0,1.17E-02,0,1.96E+09,1.35E+06,1.96E+09,0,1.17E+09,-9.14E-05,3.44E-06,-0.17237,4.7003,-7.42E+07,2.47E+07,0,1.17E-02,0,1.96E+09,-3.35E-05,1.12E-05,,-3.57E-10
97,1,1.23E-05,-9.09E-05,3.72E-06,-9.09E-05,-8.74E-05,-8.70E-05,3.72E-06,-0.19437,4.8925,3.7228,4.8925,-0.19437,4.0734,-2.35E+07,4.95E+07,-2.35E+07,4.95E+07,-1.27E+07,9.00E+06,0,1.17E-02,3.89E-06,6.54E-03,0,1.17E-02,0,1.88E+09,1.55E+06,1.88E+09,0,1.16E+09,-9.09E-05,3.72E-06,-0.19437,4.8925,-2.35E+07,4.95E+07,0,1.17E-02,0,1.88E+09,-1.06E-05,2.24E-05,,-3.58E-10
98,1,1.25E-05,-9.03E-05,4.02E-06,-9.03E-05,-8.69E-05,-8.65E-05,4.02E-06,-0.23543,5.0708,3.9371,5.0708,-0.23543,4.4251,-1.54E+07,2.51E+07,-1.54E+07,2.51E+07,-1.28E+07,1.48E+07,0,1.16E-02,3.14E-06,6.26E-03,0,1.16E-02,0,1.79E+09,1.26E+06,1.79E+09,0,1.16E+09,-9.03E-05,4.02E-06,-0.23543,5.0708,-1.54E+07,2.51E+07,0,1.16E-02,0,1.79E+09,-6.95E-06,1.13E-05,,-3.62E-10
99,1,1.26E-05,-8.97E-05,4.29E-06,-8.97E-05,-8.64E-05,-8.59E-05,4.29E-06,-0.15329,5.2455,4.0775,5.2455,-0.15329,4.3991,-3.55E+07,2.33E+07,-3.55E+07,2.33E+07,-2.11E+07,1.49E+07,0,1.15E-02,2.42E-06,5.91E-03,0,1.15E-02,0,1.68E+09,9.90E+05,1.68E+09,0,1.14E+09,-8.97E-05,4.29E-06,-0.15329,5.2455,-3.55E+07,2.33E+07,0,1.15E-02,0,1.68E+09,-1.60E-05,1.05E-05,,-3.64E-10
100,1,1.27E-05,-8.91E-05,4.52E-06,-8.91E-05,-8.58E-05,-8.54E-05,4.52E-06,-0.16852,5.3804,4.1811,5.3804,-0.16852,4.5638,-1.65E+07,3.13E+07,-1.65E+07,3.13E+07,-1.42E+07,1.31E+07,0,1.15E-02,2.26E-06,5.57E-03,0,1.15E-02,0,1.54E+09,8.83E+05,1.54E+09,0,1.13E+09,-8.91E-05,4.52E-06,-0.16852,5.3804,-1.65E+07,3.13E+07,0,1.15E-02,0,1.54E+09,-7.45E-06,1.41E-05,,-3.65E-10
101,1,1.28E-05,-8.84E-05,4.74E-06,-8.84E-05,-8.53E-05,-8.49E-05,4.74E-06,-0.16657,5.5432,4.2416,5.5432,-0.16657,4.4676,-3.23E+07,5.31E+07,-3.23E+07,5.31E+07,-2.16E+07,2.04E+07,0,1.14E-02,1.59E-06,5.17E-03,0,1.14E-02,0,1.43E+09,6.45E+05,1.43E+09,0,1.12E+09,-8.84E-05,4.74E-06,-0.16657,5.5432,-3.23E+07,5.31E+07,0,1.14E-02,0,1.43E+09,-1.46E-05,2.40E-05,,-3.66E-10
102,1,1.30E-05,-8.78E-05,4.97E-06,-8.78E-05,-8.47E-05,-8.43E-05,4.97E-06,-0.21022,5.6727,4.3457,5.6727,-0.21022,4.7244,-2.81E+07,1.54E+07,-2.81E+07,1.54E+07,-1.54E+07,1.44E+07,0,1.14E-02,2.10E-06,4.74E-03,0,1.14E-02,0,1.31E+09,8.16E+05,1.31E+09,0,1.11E+09,-8.78E-05,4.97E-06,-0.21022,5.6727,-2.81E+07,1.54E+07,0,1.14E-02,0,1.31E+09,-1.27E-05,6.95E-06,,-3.71E-10
103,1,1.31E-05,-8.71E-05,5.21E-06,-8.71E-05,-8.40E-05,-8.37E-05,5.21E-06,-0.21211,5.7899,4.5047,5.7899,-0.21211,4.9048,-1.78E+07,4.92E+07,-1.78E+07,4.92E+07,-8.14E+06,1.45E+07,0,1.13E-02,1.30E-06,4.30E-03,0,1.13E-02,0,1.20E+09,5.55E+05,1.20E+09,0,1.10E+09,-8.71E-05,5.21E-06,-0.21211,5.7899,-1.78E+07,4.92E+07,0,1.13E-02,0,1.20E+09,-8.04E-06,2.22E-05,,-3.71E-10
104,1,1.32E-05,-8.64E-05,5.49E-06,-8.64E-05,-8.32E-05,-8.32E-05,5.49E-06,-0.14713,5.8784,4.6835,5.8784,-0.14713,5.0329,-4.46E+07,1.59E+07,-4.46E+07,1.59E+07,-1.33E+07,1.29E+07,0,1.13E-02,1.35E-06,3.87E-03,0,1.13E-02,0,1.09E+09,4.92E+05,1.09E+09,0,1.09E+09,-8.64E-05,5.49E-06,-0.14713,5.8784,-4.46E+07,1.59E+07,0,1.13E-02,0,1.09E+09,-2.01E-05,7.18E-06,,-3.74E-10
105,1,1.34E-05,-8.57E-05,5.78E-06,-8.57E-05,-8.25E-05,-8.26E-05,5.78E-06,-0.15106,5.9386,4.7536,5.9386,-0.15106,5.3711,-2.25E+07,2.12E+07,-1.76E+07,1.54E+07,-2.25E+07,2.12E+07,0,1.12E-02,1.28E-06,3.42E-03,0,1.12E-02,0,1.08E+09,5.39E+05,9.70E+08,0,1.08E+09,-8.57E-05,5.78E-06,-0.15106,5.9386,-2.25E+07,2.12E+07,0,1.12E-02,0,1.08E+09,-7.95E-06,6.95E-06,,-3.75E-10
106,1,1.35E-05,-8.50E-05,6.07E-06,-8.50E-05,-8.17E-05,-8.20E-05,6.07E-06,-0.20728,6.0398,4.765,6.0398,-0.20728,5.3792,-1.50E+07,1.52E+07,-1.50E+07,9.91E+06,-9.12E+06,1.52E+07,0,1.12E-02,7.86E-07,2.95E-03,0,1.12E-02,0,1.07E+09,3.37E+05,8.45E+08,0,1.07E+09,-8.50E-05,6.07E-06,-0.20728,6.0398,-1.50E+07,1.52E+07,0,1.12E-02,0,1.07E+09,-6.77E-06,4.47E-06,,-3.76E-10
107,1,1.36E-05,-8.43E-05,6.33E-06,-8.43E-05,-8.09E-05,-8.14E-05,6.33E-06,-0.20419,6.1373,4.8229,6.1373,-0.20419,5.3984,-1.58E+07,2.33E+07,-1.58E+07,2.33E+07,-1.41E+07,1.04E+07,0,1.11E-02,5.22E-07,2.49E-03,0,1.11E-02,0,1.06E+09,2.29E+05,7.20E+08,0,1.06E+09,-8.43E-05,6.33E-06,-0.20419,6.1373,-1.58E+07,2.33E+07,0,1.11E-02,0,1.06E+09,-7.13E-06,1.05E-05,,-3.76E-10
108,1,1.37E-05,-8.36E-05,6.59E-06,-8.36E-05,-8.01E-05,-8.07E-05,6.59E-06,-0.15728,6.2104,4.775,6.2104,-0.15728,5.4232,-2.01E+07,1.54E+07,-2.01E+07,1.54E+07,-1.31E+07,1.10E+07,0,1.11E-02,3.05E-07,2.02E-03,0,1.11E-02,0,1.05E+09,1.20E+05,5.97E+08,0,1.05E+09,-8.36E-05,6.59E-06,-0.15728,6.2104,-2.01E+07,1.54E+07,0,1.11E-02,0,1.05E+09,-9.08E-06,6.95E-06,,-3.77E-10
109,1,1.39E-05,-8.28E-05,6.84E-06,-8.28E-05,-7.93E-05,-8.01E-05,6.84E-06,-0.18245,6.2412,4.7139,6.2412,-0.18245,5.3613,-2.12E+07,1.95E+07,-1.02E+07,1.58E+07,-2.12E+07,1.95E+07,0,1.10E-02,2.72E-07,1.46E-03,0,1.10E-02,0,1.04E+09,53876,4.82E+08,0,1.04E+09,-8.28E-05,6.84E-06,-0.18245,6.2412,-2.12E+07,1.95E+07,0,1.10E-02,0,1.04E+09,-4.61E-06,7.13E-06,,-3.79E-10
110,1,1.40E-05,-8.21E-05,7.11E-06,-8.21E-05,-7.86E-05,-7.95E-05,7.11E-06,-0.14755,6.2419,4.7093,6.2419,-0.14755,5.1551,-1.89E+07,3.16E+07,-1.46E+07,3.16E+07,-1.89E+07,1.92E+07,0,1.10E-02,4.48E-07,1.18E-03,0,1.10E-02,0,1.03E+09,1.22E+05,3.73E+08,0,1.03E+09,-8.21E-05,7.11E-06,-0.14755,6.2419,-1.89E+07,3.16E+07,0,1.10E-02,0,1.03E+09,-6.59E-06,1.43E-05,,-3.79E-10
111,1,1.41E-05,-8.14E-05,7.34E-06,-8.14E-05,-7.77E-05,-7.89E-05,7.34E-06,-0.17923,6.2695,4.9079,6.2695,-0.17923,5.5263,-7.57E+07,3.25E+07,-4.82E+07,2.43E+07,-7.57E+07,3.25E+07,0,1.09E-02,1.04E-07,9.57E-04,0,1.09E-02,0,1.03E+09,29741,2.60E+08,0,1.03E+09,-8.14E-05,7.34E-06,-0.17923,6.2695,-7.57E+07,3.25E+07,0,1.09E-02,0,1.03E+09,-2.18E-05,1.10E-05,,-3.81E-10
112,1,1.42E-05,-8.06E-05,7.55E-06,-8.06E-05,-7.69E-05,-7.83E-05,7.55E-06,-0.21495,6.2842,5.2246,6.2842,-0.21495,5.964,-5.57E+07,9.55E+07,-4.40E+07,9.55E+07,-5.57E+07,2.50E+07,0,1.09E-02,1.13E-07,8.15E-04,0,1.09E-02,0,1.02E+09,32445,2.07E+08,0,1.02E+09,-8.06E-05,7.55E-06,-0.21495,6.2842,-5.57E+07,9.55E+07,0,1.09E-02,0,1.02E+09,-1.99E-05,4.31E-05,,-3.82E-10
113,1,1.44E-05,-7.99E-05,7.70E-06,-7.99E-05,-7.61E-05,-7.76E-05,7.70E-06,-0.12491,6.2776,5.3179,6.2776,-0.12491,5.8188,-1.00E+08,6.50E+07,-4.86E+07,6.50E+07,-1.00E+08,2.90E+07,0,1.09E-02,1.87E-07,7.99E-04,0,1.09E-02,0,1.02E+09,49984,2.92E+08,0,1.02E+09,-7.99E-05,7.70E-06,-0.12491,6.2776,-1.00E+08,6.50E+07,0,1.09E-02,0,1.02E+09,-2.19E-05,2.94E-05,,-3.91E-10
114,1,1.45E-05,-7.91E-05,7.77E-06,-7.91E-05,-7.53E-05,-7.70E-05,7.77E-06,-1.2315,6.407,5.7332,6.407,-1.2315,1.3201,-1.19E+08,4.04E+07,-3.06E+07,4.04E+07,-1.19E+08,3.49E+07,0,1.09E-02,2.44E-07,8.77E-04,0,1.09E-02,0,1.02E+09,82064,3.28E+08,0,1.02E+09,-7.91E-05,7.77E-06,-1.2315,6.407,-1.19E+08,4.04E+07,0,1.09E-02,0,1.02E+09,-1.38E-05,1.82E-05,,-3.94E-10
115,1,1.46E-05,-7.84E-05,7.74E-06,-7.84E-05,-7.45E-05,-7.71E-05,7.74E-06,-1.5619,6.2557,5.7551,6.2557,-1.5619,0.14029,-8.15E+07,5.20E+07,-3.88E+07,2.99E+07,-8.15E+07,5.20E+07,0,1.09E-02,2.70E-07,8.78E-04,0,1.09E-02,0,1.02E+09,48967,3.28E+08,0,1.02E+09,-7.84E-05,7.74E-06,-1.5619,6.2557,-8.15E+07,5.20E+07,0,1.09E-02,0,1.02E+09,-1.75E-05,1.35E-05,,-3.95E-10
116,1,1.48E-05,-7.77E-05,7.62E-06,-7.77E-05,-7.37E-05,-7.72E-05,7.62E-06,-1.5051,6.2725,5.7666,6.2725,-1.5051,0.17137,-4.10E+07,2.58E+07,-4.10E+07,2.11E+07,-3.62E+07,2.58E+07,0,1.09E-02,1.35E-07,8.80E-04,0,1.09E-02,0,1.02E+09,47868,3.28E+08,0,1.02E+09,-7.77E-05,7.62E-06,-1.5051,6.2725,-4.10E+07,2.58E+07,0,1.09E-02,0,1.02E+09,-1.85E-05,9.53E-06,,-3.98E-10
117,1,1.49E-05,-7.74E-05,7.52E-06,-7.69E-05,-7.29E-05,-7.74E-05,7.52E-06,-0.94718,6.2703,5.7408,6.2703,-0.94718,0.17846,-2.92E+07,2.86E+07,-2.09E+07,2.83E+07,-2.92E+07,2.86E+07,0,1.09E-02,1.13E-07,8.79E-04,0,1.09E-02,0,1.02E+09,32313,3.30E+08,0,1.02E+09,-7.74E-05,7.52E-06,-0.94718,6.2703,-2.92E+07,2.86E+07,0,1.09E-02,0,1.02E+09,-9.44E-06,1.28E-05,,-3.99E-10
118,1,1.50E-05,-7.74E-05,7.50E-06,-7.62E-05,-7.21E-05,-7.74E-05,7.50E-06,-0.28707,6.2697,5.7332,6.2697,-0.28707,0.84818,-2.61E+07,2.86E+07,-2.22E+07,1.80E+07,-2.61E+07,2.86E+07,0,1.09E-02,2.70E-07,8.79E-04,0,1.09E-02,0,1.02E+09,64506,3.30E+08,0,1.02E+09,-7.74E-05,7.50E-06,-0.28707,6.2697,-2.61E+07,2.86E+07,0,1.09E-02,0,1.02E+09,-1.00E-05,8.13E-06,,-4.00E-10
119,1,1.51E-05,-7.73E-05,7.57E-06,-7.54E-05,-7.13E-05,-7.73E-05,7.57E-06,-0.15312,6.2888,5.7398,6.2888,-0.15312,0.99409,-2.25E+07,2.97E+07,-2.25E+07,1.35E+07,-2.01E+07,2.97E+07,0,1.09E-02,1.82E-07,8.76E-04,0,1.09E-02,0,1.02E+09,42860,3.30E+08,0,1.02E+09,-7.73E-05,7.57E-06,-0.15312,6.2888,-2.25E+07,2.97E+07,0,1.09E-02,0,1.02E+09,-1.02E-05,6.10E-06,,-4.01E-10
120,1,1.53E-05,-7.72E-05,7.64E-06,-7.47E-05,-7.05E-05,-7.72E-05,7.64E-06,-0.14786,6.2863,5.7696,6.2863,-0.14786,1.1226,-2.48E+07,2.32E+07,-1.33E+07,1.20E+07,-2.48E+07,2.32E+07,0,1.09E-02,2.54E-07,8.79E-04,0,1.09E-02,0,1.02E+09,76801,3.30E+08,0,1.02E+09,-7.72E-05,7.64E-06,-0.14786,6.2863,-2.48E+07,2.32E+07,0,1.09E-02,0,1.02E+09,-6.01E-06,5.42E-06,,-4.02E-10
121,1,1.54E-05,-7.71E-05,7.73E-06,-7.40E-05,-6.97E-05,-7.71E-05,7.73E-06,-0.19856,6.2725,5.7758,6.2725,-0.19856,0.95853,-2.59E+07,1.54E+07,-1.05E+07,9.07E+06,-2.59E+07,1.54E+07,0,1.09E-02,2.11E-07,8.78E-04,0,1.09E-02,0,1.02E+09,71613,3.30E+08,0,1.02E+09,-7.71E-05,7.73E-06,-0.19856,6.2725,-2.59E+07,1.54E+07,0,1.09E-02,0,1.02E+09,-4.74E-06,4.10E-06,,-4.03E-10
122,1,1.55E-05,-7.71E-05,7.75E-06,-7.32E-05,-6.89E-05,-7.71E-05,7.75E-06,-0.48018,6.272,5.7422,6.272,-0.48018,0.44338,-2.93E+07,1.39E+07,-7.67E+06,7.42E+06,-2.93E+07,1.39E+07,0,1.09E-02,1.72E-07,8.78E-04,0,1.09E-02,0,1.02E+09,25009,3.29E+08,0,1.02E+09,-7.71E-05,7.75E-06,-0.48018,6.272,-2.93E+07,1.39E+07,0,1.09E-02,0,1.02E+09,-3.46E-06,3.35E-06,,-4.03E-10
123,1,1.57E-05,-7.71E-05,7.71E-06,-7.25E-05,-6.81E-05,-7.71E-05,7.71E-06,-0.98579,6.2707,5.7429,6.2707,-0.98579,0.16728,-2.23E+07,1.98E+07,-1.18E+07,1.42E+07,-2.23E+07,1.98E+07,0,1.09E-02,2.05E-07,8.79E-04,0,1.09E-02,0,1.02E+09,33393,3.29E+08,0,1.02E+09,-7.71E-05,7.71E-06,-0.98579,6.2707,-2.23E+07,1.98E+07,0,1.09E-02,0,1.02E+09,-5.33E-06,6.41E-06,,-4.04E-10
124,1,1.58E-05,-7.72E-05,7.63E-06,-7.17E-05,-6.73E-05,-7.72E-05,7.63E-06,-1.127,6.2894,5.7462,6.2894,-1.127,0.16718,-3.12E+07,2.77E+07,-9.47E+06,1.06E+07,-3.12E+07,2.77E+07,0,1.09E-02,9.91E-08,8.78E-04,0,1.09E-02,0,1.02E+09,35605,3.29E+08,0,1.02E+09,-7.72E-05,7.63E-06,-1.127,6.2894,-3.12E+07,2.77E+07,0,1.09E-02,0,1.02E+09,-4.28E-06,4.79E-06,,-4.05E-10
125,1,1.59E-05,-7.73E-05,7.53E-06,-7.10E-05,-6.65E-05,-7.73E-05,7.53E-06,-0.75609,6.2771,5.7404,6.2771,-0.75609,0.15869,-1.34E+07,2.97E+07,-1.10E+07,8.31E+06,-1.34E+07,2.97E+07,0,1.09E-02,1.17E-07,8.78E-04,0,1.09E-02,0,1.02E+09,37731,3.29E+08,0,1.02E+09,-7.73E-05,7.53E-06,-0.75609,6.2771,-1.34E+07,2.97E+07,0,1.09E-02,0,1.02E+09,-4.97E-06,3.75E-06,,-4.05E-10
126,1,1.60E-05,-7.73E-05,7.51E-06,-7.03E-05,-6.57E-05,-7.73E-05,7.51E-06,-0.2001,6.2533,5.7527,6.2533,-0.2001,0.60659,-1.55E+07,1.66E+07,-1.02E+07,9.87E+06,-1.55E+07,1.66E+07,0,1.09E-02,2.50E-07,8.79E-04,0,1.09E-02,0,1.02E+09,62016,3.30E+08,0,1.02E+09,-7.73E-05,7.51E-06,-0.2001,6.2533,-1.55E+07,1.66E+07,0,1.09E-02,0,1.02E+09,-4.61E-06,4.46E-06,,-4.05E-10
127,1,1.62E-05,-7.73E-05,7.57E-06,-6.95E-05,-6.49E-05,-7.73E-05,7.57E-06,-0.20053,6.2553,5.7328,6.2553,-0.20053,0.84718,-1.29E+07,1.52E+07,-6.80E+06,5.46E+06,-1.29E+07,1.52E+07,0,1.09E-02,2.26E-07,8.79E-04,0,1.09E-02,0,1.02E+09,79595,3.30E+08,0,1.02E+09,-7.73E-05,7.57E-06,-0.20053,6.2553,-1.29E+07,1.52E+07,0,1.09E-02,0,1.02E+09,-3.07E-06,2.47E-06,,-4.06E-10
128,1,1.63E-05,-7.72E-05,7.64E-06,-6.88E-05,-6.41E-05,-7.72E-05,7.64E-06,-0.14278,6.2684,5.7554,6.2684,-0.14278,0.88857,-1.64E+07,1.32E+07,-6.27E+06,8.02E+06,-1.64E+07,1.32E+07,0,1.09E-02,1.98E-07,8.78E-04,0,1.09E-02,0,1.02E+09,65989,3.30E+08,0,1.02E+09,-7.72E-05,7.64E-06,-0.14278,6.2684,-1.64E+07,1.32E+07,0,1.09E-02,0,1.02E+09,-2.83E-06,3.62E-06,,-4.07E-10
129,1,1.64E-05,-7.72E-05,7.70E-06,-6.80E-05,-6.33E-05,-7.72E-05,7.70E-06,-0.27978,6.2837,5.7701,6.2837,-0.27978,0.60921,-1.59E+07,9.47E+06,-3.36E+06,5.07E+06,-1.59E+07,9.47E+06,0,1.09E-02,4.89E-08,8.78E-04,0,1.09E-02,0,1.02E+09,15598,3.30E+08,0,1.02E+09,-7.72E-05,7.70E-06,-0.27978,6.2837,-1.59E+07,9.47E+06,0,1.09E-02,0,1.02E+09,-1.52E-06,2.29E-06,,-4.07E-10
130,1,1.66E-05,-7.71E-05,7.71E-06,-6.73E-05,-6.25E-05,-7.71E-05,7.71E-06,-0.67064,6.2985,5.7656,6.2985,-0.67064,0.25483,-1.67E+07,1.35E+07,-7.92E+06,6.27E+06,-1.67E+07,1.35E+07,0,1.09E-02,2.14E-07,8.79E-04,0,1.09E-02,0,1.02E+09,64648,3.29E+08,0,1.02E+09,-7.71E-05,7.71E-06,-0.67064,6.2985,-1.67E+07,1.35E+07,0,1.09E-02,0,1.02E+09,-3.58E-06,2.83E-06,,-4.07E-10
131,1,1.67E-05,-7.72E-05,7.69E-06,-6.66E-05,-6.17E-05,-7.72E-05,7.69E-06,-0.87175,6.2755,5.7608,6.2755,-0.87175,0.14724,-1.56E+07,9.09E+06,-3.99E+06,9.09E+06,-1.56E+07,8.04E+06,0,1.09E-02,2.34E-07,8.79E-04,0,1.09E-02,0,1.02E+09,85925,3.29E+08,0,1.02E+09,-7.72E-05,7.69E-06,-0.87175,6.2755,-1.56E+07,9.09E+06,0,1.09E-02,0,1.02E+09,-1.80E-06,4.10E-06,,-4.08E-10
132,1,1.68E-05,-7.73E-05,7.62E-06,-6.58E-05,-6.09E-05,-7.73E-05,7.62E-06,-0.82753,6.2616,5.7439,6.2616,-0.82753,0.12741,-1.11E+07,1.18E+07,-1.11E+07,4.34E+06,-1.06E+07,1.18E+07,0,1.09E-02,2.42E-07,8.78E-04,0,1.09E-02,0,1.02E+09,72337,3.29E+08,0,1.02E+09,-7.73E-05,7.62E-06,-0.82753,6.2616,-1.11E+07,1.18E+07,0,1.09E-02,0,1.02E+09,-5.01E-06,1.96E-06,,-4.08E-10
133,1,1.69E-05,-7.73E-05,7.56E-06,-6.51E-05,-6.01E-05,-7.73E-05,7.56E-06,-0.4297,6.2635,5.742,6.2635,-0.4297,0.15925,-8.98E+06,1.41E+07,-6.04E+06,7.00E+06,-8.98E+06,1.41E+07,0,1.09E-02,2.09E-07,8.79E-04,0,1.09E-02,0,1.02E+09,66014,3.29E+08,0,1.02E+09,-7.73E-05,7.56E-06,-0.4297,6.2635,-8.98E+06,1.41E+07,0,1.09E-02,0,1.02E+09,-2.73E-06,3.16E-06,,-4.08E-10
134,1,1.71E-05,-7.73E-05,7.56E-06,-6.43E-05,-5.92E-05,-7.73E-05,7.56E-06,-0.27734,6.263,5.7399,6.263,-0.27734,0.62346,-7.32E+06,1.55E+07,-2.95E+06,3.47E+06,-7.32E+06,1.55E+07,0,1.09E-02,1.09E-07,8.78E-04,0,1.09E-02,0,1.02E+09,14094,3.29E+08,0,1.02E+09,-7.73E-05,7.56E-06,-0.27734,6.263,-7.32E+06,1.55E+07,0,1.09E-02,0,1.02E+09,-1.33E-06,1.57E-06,,-4.09E-10
135,1,1.72E-05,-7.72E-05,7.61E-06,-6.36E-05,-5.84E-05,-7.72E-05,7.61E-06,-0.17563,6.2754,5.7213,6.2754,-0.17563,0.78688,-1.39E+07,1.11E+07,-3.24E+06,3.17E+06,-1.39E+07,1.11E+07,0,1.09E-02,1.58E-07,8.78E-04,0,1.09E-02,0,1.02E+09,49971,3.30E+08,0,1.02E+09,-7.72E-05,7.61E-06,-0.17563,6.2754,-1.39E+07,1.11E+07,0,1.09E-02,0,1.02E+09,-1.46E-06,1.43E-06,,-4.09E-10
136,1,1.73E-05,-7.72E-05,7.65E-06,-6.29E-05,-5.76E-05,-7.72E-05,7.65E-06,-0.16023,6.2609,5.7455,6.2609,-0.16023,0.68127,-1.51E+07,7.86E+06,-1.51E+06,3.01E+06,-1.51E+07,7.86E+06,0,1.09E-02,1.42E-07,8.79E-04,0,1.09E-02,0,1.02E+09,44581,3.30E+08,0,1.02E+09,-7.72E-05,7.65E-06,-0.16023,6.2609,-1.51E+07,7.86E+06,0,1.09E-02,0,1.02E+09,-6.82E-07,1.36E-06,,-4.09E-10
137,1,1.75E-05,-7.72E-05,7.67E-06,-6.21E-05,-5.68E-05,-7.72E-05,7.67E-06,-0.17906,6.2745,5.7702,6.2745,-0.17906,0.35674,-1.46E+07,7.96E+06,-4.74E+06,3.34E+06,-1.46E+07,7.96E+06,0,1.09E-02,1.90E-07,8.78E-04,0,1.09E-02,0,1.02E+09,63993,3.30E+08,0,1.02E+09,-7.72E-05,7.67E-06,-0.17906,6.2745,-1.46E+07,7.96E+06,0,1.09E-02,0,1.02E+09,-2.14E-06,1.51E-06,,-4.09E-10
138,1,1.76E-05,-7.72E-05,7.67E-06,-6.14E-05,-5.60E-05,-7.72E-05,7.67E-06,-0.55671,6.2841,5.7729,6.2841,-0.55671,0.17157,-9.58E+06,8.38E+06,-3.94E+06,6.16E+06,-9.58E+06,8.38E+06,0,1.09E-02,1.11E-07,8.78E-04,0,1.09E-02,0,1.02E+09,33185,3.30E+08,0,1.02E+09,-7.72E-05,7.67E-06,-0.55671,6.2841,-9.58E+06,8.38E+06,0,1.09E-02,0,1.02E+09,-1.78E-06,2.78E-06,,-4.10E-10
139,1,1.77E-05,-7.72E-05,7.65E-06,-6.07E-05,-5.52E-05,-7.72E-05,7.65E-06,-0.59506,6.2804,5.7582,6.2804,-0.59506,0.15438,-9.31E+06,1.09E+07,-7.11E+06,2.54E+06,-9.31E+06,1.09E+07,0,1.09E-02,1.80E-07,8.79E-04,0,1.09E-02,0,1.02E+09,50974,3.29E+08,0,1.02E+09,-7.72E-05,7.65E-06,-0.59506,6.2804,-9.31E+06,1.09E+07,0,1.09E-02,0,1.02E+09,-3.21E-06,1.15E-06,,-4.10E-10
140,1,1.78E-05,-7.73E-05,7.60E-06,-5.99E-05,-5.44E-05,-7.73E-05,7.60E-06,-0.49669,6.2909,5.7537,6.2909,-0.49669,0.24204,-9.21E+06,1.25E+07,-3.58E+06,4.30E+06,-9.21E+06,1.25E+07,0,1.09E-02,1.62E-07,8.79E-04,0,1.09E-02,0,1.02E+09,42448,3.29E+08,0,1.02E+09,-7.73E-05,7.60E-06,-0.49669,6.2909,-9.21E+06,1.25E+07,0,1.09E-02,0,1.02E+09,-1.62E-06,1.94E-06,,-4.10E-10
141,1,1.80E-05,-7.73E-05,7.57E-06,-5.92E-05,-5.36E-05,-7.73E-05,7.57E-06,-0.34437,6.2799,5.7433,6.2799,-0.34437,0.23994,-8.54E+06,1.07E+07,-2.38E+06,2.63E+06,-8.54E+06,1.07E+07,0,1.09E-02,1.92E-07,8.79E-04,0,1.09E-02,0,1.02E+09,68000,3.29E+08,0,1.02E+09,-7.73E-05,7.57E-06,-0.34437,6.2799,-8.54E+06,1.07E+07,0,1.09E-02,0,1.02E+09,-1.07E-06,1.19E-06,,-4.10E-10
142,1,1.81E-05,-7.73E-05,7.58E-06,-5.84E-05,-5.28E-05,-7.73E-05,7.58E-06,-0.1803,6.2654,5.7434,6.2654,-0.1803,0.54432,-7.95E+06,1.01E+07,-1.44E+06,1.40E+06,-7.95E+06,1.01E+07,0,1.09E-02,1.79E-07,8.78E-04,0,1.09E-02,0,1.02E+09,37657,3.29E+08,0,1.02E+09,-7.73E-05,7.58E-06,-0.1803,6.2654,-7.95E+06,1.01E+07,0,1.09E-02,0,1.02E+09,-6.50E-07,6.32E-07,,-4.11E-10
143,1,1.82E-05,-7.72E-05,7.63E-06,-5.77E-05,-5.20E-05,-7.72E-05,7.63E-06,-0.15762,6.2607,5.7361,6.2607,-0.15762,0.56397,-1.32E+07,7.42E+06,-1.21E+06,1.41E+06,-1.32E+07,7.42E+06,0,1.09E-02,1.81E-07,8.78E-04,0,1.09E-02,0,1.02E+09,33923,3.30E+08,0,1.02E+09,-7.72E-05,7.63E-06,-0.15762,6.2607,-1.32E+07,7.42E+06,0,1.09E-02,0,1.02E+09,-5.46E-07,6.37E-07,,-4.11E-10
144,1,1.84E-05,-7.72E-05,7.66E-06,-5.70E-05,-5.12E-05,-7.72E-05,7.66E-06,-0.17062,6.2514,5.7306,6.2514,-0.17062,0.45959,-1.36E+07,5.42E+06,-3.03E+06,1.30E+06,-1.36E+07,5.42E+06,0,1.09E-02,1.86E-07,8.78E-04,0,1.09E-02,0,1.02E+09,49911,3.30E+08,0,1.02E+09,-7.72E-05,7.66E-06,-0.17062,6.2514,-1.36E+07,5.42E+06,0,1.09E-02,0,1.02E+09,-1.37E-06,5.87E-07,,-4.11E-10
145,1,1.85E-05,-7.72E-05,7.67E-06,-5.62E-05,-5.04E-05,-7.72E-05,7.67E-06,-0.46761,6.273,5.7478,6.273,-0.46761,0.18457,-1.06E+07,5.74E+06,-2.34E+06,3.95E+06,-1.06E+07,5.74E+06,0,1.09E-02,1.77E-07,8.78E-04,0,1.09E-02,0,1.02E+09,58456,3.30E+08,0,1.02E+09,-7.72E-05,7.67E-06,-0.46761,6.273,-1.06E+07,5.74E+06,0,1.09E-02,0,1.02E+09,-1.06E-06,1.78E-06,,-4.11E-10
146,1,1.86E-05,-7.72E-05,7.65E-06,-5.55E-05,-4.96E-05,-7.72E-05,7.65E-06,-0.51757,6.2782,5.7597,6.2782,-0.51757,0.22974,-6.70E+06,6.33E+06,-4.75E+06,2.05E+06,-6.70E+06,6.33E+06,0,1.09E-02,1.55E-07,8.78E-04,0,1.09E-02,0,1.02E+09,66242,3.30E+08,0,1.02E+09,-7.72E-05,7.65E-06,-0.51757,6.2782,-6.70E+06,6.33E+06,0,1.09E-02,0,1.02E+09,-2.14E-06,9.26E-07,,-4.11E-10
147,1,1.87E-05,-7.72E-05,7.63E-06,-5.47E-05,-4.88E-05,-7.72E-05,7.63E-06,-0.39565,6.2983,5.7761,6.2983,-0.39565,0.17466,-7.54E+06,8.85E+06,-1.90E+06,3.81E+06,-7.54E+06,8.85E+06,0,1.09E-02,1.32E-07,8.78E-04,0,1.09E-02,0,1.02E+09,22506,3.29E+08,0,1.02E+09,-7.72E-05,7.63E-06,-0.39565,6.2983,-7.54E+06,8.85E+06,0,1.09E-02,0,1.02E+09,-8.58E-07,1.72E-06,,-4.11E-10
148,1,1.89E-05,-7.73E-05,7.61E-06,-5.40E-05,-4.80E-05,-7.73E-05,7.61E-06,-0.42141,6.2794,5.7612,6.2794,-0.42141,0.26871,-8.17E+06,7.16E+06,-2.12E+06,1.61E+06,-8.17E+06,7.16E+06,0,1.09E-02,1.09E-07,8.79E-04,0,1.09E-02,0,1.02E+09,32685,3.29E+08,0,1.02E+09,-7.73E-05,7.61E-06,-0.42141,6.2794,-8.17E+06,7.16E+06,0,1.09E-02,0,1.02E+09,-9.57E-07,7.27E-07,,-4.11E-10
149,1,1.90E-05,-7.73E-05,7.60E-06,-5.33E-05,-4.72E-05,-7.73E-05,7.60E-06,-0.20111,6.2659,5.7443,6.2659,-0.20111,0.4014,-7.21E+06,8.11E+06,-9.67E+05,9.86E+05,-7.21E+06,8.11E+06,0,1.09E-02,1.66E-07,8.79E-04,0,1.09E-02,0,1.02E+09,45726,3.29E+08,0,1.02E+09,-7.73E-05,7.60E-06,-0.20111,6.2659,-7.21E+06,8.11E+06,0,1.09E-02,0,1.02E+09,-4.37E-07,4.45E-07,,-4.11E-10
150,1,1.91E-05,-7.72E-05,7.62E-06,-5.25E-05,-4.64E-05,-7.72E-05,7.62E-06,-0.14791,6.268,5.744,6.268,-0.14791,0.48553,-1.09E+07,7.47E+06,-9.61E+05,1.12E+06,-1.09E+07,7.47E+06,0,1.09E-02,1.53E-07,8.79E-04,0,1.09E-02,0,1.02E+09,29186,3.29E+08,0,1.02E+09,-7.72E-05,7.62E-06,-0.14791,6.268,-1.09E+07,7.47E+06,0,1.09E-02,0,1.02E+09,-4.34E-07,5.06E-07,,-4.12E-10
151,1,1.93E-05,-7.72E-05,7.64E-06,-5.18E-05,-4.56E-05,-7.72E-05,7.64E-06,-0.19535,6.2594,5.7372,6.2594,-0.19535,0.49401,-7.71E+06,5.35E+06,-2.04E+06,9.68E+05,-7.71E+06,5.35E+06,0,1.09E-02,1.22E-07,8.78E-04,0,1.09E-02,0,1.02E+09,37707,3.29E+08,0,1.02E+09,-7.72E-05,7.64E-06,-0.19535,6.2594,-7.71E+06,5.35E+06,0,1.09E-02,0,1.02E+09,-9.21E-07,4.37E-07,,-4.12E-10
152,1,1.94E-05,-7.72E-05,7.65E-06,-5.10E-05,-4.48E-05,-7.72E-05,7.65E-06,-0.4317,6.274,5.7427,6.274,-0.4317,0.25997,-8.70E+06,5.54E+06,-2.01E+06,2.49E+06,-8.70E+06,5.54E+06,0,1.09E-02,2.41E-07,8.78E-04,0,1.09E-02,0,1.02E+09,54717,3.30E+08,0,1.02E+09,-7.72E-05,7.65E-06,-0.4317,6.274,-8.70E+06,5.54E+06,0,1.09E-02,0,1.02E+09,-9.08E-07,1.12E-06,,-4.12E-10
153,1,1.95E-05,-7.72E-05,7.62E-06,-5.03E-05,-4.40E-05,-7.72E-05,7.62E-06,-0.52763,6.2665,5.7386,6.2665,-0.52763,0.14582,-7.03E+06,6.60E+06,-2.66E+06,1.33E+06,-7.03E+06,6.60E+06,0,1.09E-02,1.61E-07,8.78E-04,0,1.09E-02,0,1.02E+09,48308,3.30E+08,0,1.02E+09,-7.72E-05,7.62E-06,-0.52763,6.2665,-7.03E+06,6.60E+06,0,1.09E-02,0,1.02E+09,-1.20E-06,6.01E-07,,-4.12E-10
154,1,1.96E-05,-7.73E-05,7.60E-06,-4.96E-05,-4.32E-05,-7.73E-05,7.60E-06,-0.50582,6.2632,5.7505,6.2632,-0.50582,0.26252,-6.26E+06,7.22E+06,-1.47E+06,1.86E+06,-6.26E+06,7.22E+06,0,1.09E-02,8.95E-08,8.78E-04,0,1.09E-02,0,1.02E+09,31804,3.30E+08,0,1.02E+09,-7.73E-05,7.60E-06,-0.50582,6.2632,-6.26E+06,7.22E+06,0,1.09E-02,0,1.02E+09,-6.64E-07,8.40E-07,,-4.12E-10
155,1,1.98E-05,-7.73E-05,7.60E-06,-4.88E-05,-4.24E-05,-7.73E-05,7.60E-06,-0.31894,6.2685,5.7621,6.2685,-0.31894,0.29777,-5.13E+06,1.02E+07,-1.33E+06,1.43E+06,-5.13E+06,1.02E+07,0,1.09E-02,1.97E-07,8.79E-04,0,1.09E-02,0,1.02E+09,67914,3.30E+08,0,1.02E+09,-7.73E-05,7.60E-06,-0.31894,6.2685,-5.13E+06,1.02E+07,0,1.09E-02,0,1.02E+09,-6.01E-07,6.46E-07,,-4.12E-10
156,1,1.99E-05,-7.73E-05,7.63E-06,-4.81E-05,-4.15E-05,-7.73E-05,7.63E-06,-0.15637,6.2785,5.7654,6.2785,-0.15637,0.39942,-5.03E+06,6.13E+06,-1.13E+06,5.08E+05,-5.03E+06,6.13E+06,0,1.09E-02,2.17E-07,8.79E-04,0,1.09E-02,0,1.02E+09,69193,3.29E+08,0,1.02E+09,-7.73E-05,7.63E-06,-0.15637,6.2785,-5.03E+06,6.13E+06,0,1.09E-02,0,1.02E+09,-5.10E-07,2.29E-07,,-4.12E-10
157,1,2.00E-05,-7.72E-05,7.66E-06,-4.73E-05,-4.07E-05,-7.72E-05,7.66E-06,-0.11987,6.291,5.765,6.291,-0.11987,0.53036,-5.12E+06,8.34E+06,-5.23E+05,1.03E+06,-5.12E+06,8.34E+06,0,1.09E-02,2.11E-07,8.79E-04,0,1.09E-02,0,1.02E+09,67398,3.29E+08,0,1.02E+09,-7.72E-05,7.66E-06,-0.11987,6.291,-5.12E+06,8.34E+06,0,1.09E-02,0,1.02E+09,-2.36E-07,4.65E-07,,-4.12E-10
158,1,2.02E-05,-7.72E-05,7.67E-06,-4.66E-05,-3.99E-05,-7.72E-05,7.67E-06,-0.22865,6.2775,5.7574,6.2775,-0.22865,0.48665,-6.84E+06,5.06E+06,-1.21E+06,1.02E+06,-6.84E+06,5.06E+06,0,1.09E-02,5.92E-08,8.78E-04,0,1.09E-02,0,1.02E+09,16889,3.29E+08,0,1.02E+09,-7.72E-05,7.67E-06,-0.22865,6.2775,-6.84E+06,5.06E+06,0,1.09E-02,0,1.02E+09,-5.46E-07,4.61E-07,,-4.12E-10
159,1,2.03E-05,-7.72E-05,7.67E-06,-4.59E-05,-3.91E-05,-7.72E-05,7.67E-06,-0.38336,6.2636,5.7531,6.2636,-0.38336,0.24586,-8.49E+06,3.34E+06,-4.43E+05,2.23E+06,-8.49E+06,3.34E+06,0,1.09E-02,1.09E-07,8.78E-04,0,1.09E-02,0,1.02E+09,38816,3.29E+08,0,1.02E+09,-7.72E-05,7.67E-06,-0.38336,6.2636,-8.49E+06,3.34E+06,0,1.09E-02,0,1.02E+09,-2.00E-07,1.01E-06,,-4.12E-10
160,1,2.04E-05,-7.72E-05,7.64E-06,-4.51E-05,-3.83E-05,-7.72E-05,7.64E-06,-0.52488,6.2688,5.7355,6.2688,-0.52488,0.14146,-8.84E+06,4.79E+06,-1.75E+06,9.65E+05,-8.84E+06,4.79E+06,0,1.09E-02,1.64E-07,8.79E-04,0,1.09E-02,0,1.02E+09,42511,3.29E+08,0,1.02E+09,-7.72E-05,7.64E-06,-0.52488,6.2688,-8.84E+06,4.79E+06,0,1.09E-02,0,1.02E+09,-7.90E-07,4.36E-07,,-4.12E-10
161,1,2.05E-05,-7.73E-05,7.58E-06,-4.44E-05,-3.75E-05,-7.73E-05,7.58E-06,-0.51118,6.2564,5.7311,6.2564,-0.51118,0.12002,-6.09E+06,6.76E+06,-1.11E+06,1.49E+06,-6.09E+06,6.76E+06,0,1.09E-02,1.33E-07,8.78E-04,0,1.09E-02,0,1.02E+09,28165,3.30E+08,0,1.02E+09,-7.73E-05,7.58E-06,-0.51118,6.2564,-6.09E+06,6.76E+06,0,1.09E-02,0,1.02E+09,-5.01E-07,6.73E-07,,-4.12E-10
162,1,2.07E-05,-7.73E-05,7.55E-06,-4.37E-05,-3.67E-05,-7.73E-05,7.55E-06,-0.42845,6.2714,5.7478,6.2714,-0.42845,0.22258,-4.28E+06,8.12E+06,-1.26E+06,6.67E+05,-4.28E+06,8.12E+06,0,1.09E-02,1.29E-07,8.78E-04,0,1.09E-02,0,1.02E+09,35985,3.30E+08,0,1.02E+09,-7.73E-05,7.55E-06,-0.42845,6.2714,-4.28E+06,8.12E+06,0,1.09E-02,0,1.02E+09,-5.69E-07,3.01E-07,,-4.12E-10
163,1,2.08E-05,-7.73E-05,7.57E-06,-4.29E-05,-3.59E-05,-7.73E-05,7.57E-06,-0.23007,6.2675,5.7525,6.2675,-0.23007,0.45139,-3.72E+06,7.05E+06,-9.37E+05,5.76E+05,-3.72E+06,7.05E+06,0,1.09E-02,1.45E-07,8.78E-04,0,1.09E-02,0,1.02E+09,40111,3.30E+08,0,1.02E+09,-7.73E-05,7.57E-06,-0.23007,6.2675,-3.72E+06,7.05E+06,0,1.09E-02,0,1.02E+09,-4.23E-07,2.60E-07,,-4.13E-10
164,1,2.09E-05,-7.72E-05,7.62E-06,-4.22E-05,-3.51E-05,-7.72E-05,7.62E-06,-0.14683,6.2746,5.754,6.2746,-0.14683,0.54099,-6.39E+06,5.85E+06,-3.95E+05,1.04E+06,-6.39E+06,5.85E+06,0,1.09E-02,1.14E-07,8.79E-04,0,1.09E-02,0,1.02E+09,25482,3.29E+08,0,1.02E+09,-7.72E-05,7.62E-06,-0.14683,6.2746,-6.39E+06,5.85E+06,0,1.09E-02,0,1.02E+09,-1.78E-07,4.70E-07,,-4.13E-10
165,1,2.11E-05,-7.72E-05,7.68E-06,-4.14E-05,-3.43E-05,-7.72E-05,7.68E-06,-0.14348,6.2777,5.7611,6.2777,-0.14348,0.44911,-5.77E+06,5.61E+06,-1.48E+06,5.17E+05,-5.77E+06,5.61E+06,0,1.09E-02,1.55E-07,8.78E-04,0,1.09E-02,0,1.02E+09,39145,3.29E+08,0,1.02E+09,-7.72E-05,7.68E-06,-0.14348,6.2777,-5.77E+06,5.61E+06,0,1.09E-02,0,1.02E+09,-6.68E-07,2.33E-07,,-4.13E-10
166,1,2.12E-05,-7.72E-05,7.70E-06,-4.07E-05,-3.35E-05,-7.72E-05,7.70E-06,-0.19935,6.2686,5.7662,6.2686,-0.19935,0.28714,-7.54E+06,2.92E+06,-4.13E+05,1.70E+06,-7.54E+06,2.92E+06,0,1.09E-02,1.03E-07,8.79E-04,0,1.09E-02,0,1.02E+09,37879,3.30E+08,0,1.02E+09,-7.72E-05,7.70E-06,-0.19935,6.2686,-7.54E+06,2.92E+06,0,1.09E-02,0,1.02E+09,-1.86E-07,7.68E-07,,-4.13E-10
167,1,2.13E-05,-7.72E-05,7.68E-06,-4.00E-05,-3.27E-05,-7.72E-05,7.68E-06,-0.50273,6.2826,5.7663,6.2826,-0.50273,0.11533,-7.17E+06,4.98E+06,-1.33E+06,6.95E+05,-7.17E+06,4.98E+06,0,1.09E-02,1.31E-07,8.79E-04,0,1.09E-02,0,1.02E+09,35971,3.29E+08,0,1.02E+09,-7.72E-05,7.68E-06,-0.50273,6.2826,-7.17E+06,4.98E+06,0,1.09E-02,0,1.02E+09,-6.01E-07,3.14E-07,,-4.13E-10
168,1,2.14E-05,-7.72E-05,7.63E-06,-3.92E-05,-3.19E-05,-7.72E-05,7.63E-06,-0.6644,6.2656,5.7517,6.2656,-0.6644,0.11612,-5.70E+06,4.74E+06,-5.81E+05,1.06E+06,-5.70E+06,4.74E+06,0,1.09E-02,8.60E-08,8.78E-04,0,1.09E-02,0,1.02E+09,21086,3.29E+08,0,1.02E+09,-7.72E-05,7.63E-06,-0.6644,6.2656,-5.70E+06,4.74E+06,0,1.09E-02,0,1.02E+09,-2.62E-07,4.79E-07,,-4.13E-10
169,1,2.16E-05,-7.73E-05,7.59E-06,-3.85E-05,-3.11E-05,-7.73E-05,7.59E-06,-0.59978,6.2629,5.7341,6.2629,-0.59978,0.11816,-4.76E+06,5.88E+06,-5.85E+05,5.04E+05,-4.76E+06,5.88E+06,0,1.09E-02,1.41E-07,8.79E-04,0,1.09E-02,0,1.02E+09,35715,3.29E+08,0,1.02E+09,-7.73E-05,7.59E-06,-0.59978,6.2629,-4.76E+06,5.88E+06,0,1.09E-02,0,1.02E+09,-2.64E-07,2.28E-07,,-4.13E-10
170,1,2.17E-05,-7.73E-05,7.55E-06,-3.77E-05,-3.03E-05,-7.73E-05,7.55E-06,-0.3057,6.2673,5.7301,6.2673,-0.3057,0.26267,-2.86E+06,8.30E+06,-7.11E+05,3.72E+05,-2.86E+06,8.30E+06,0,1.09E-02,1.43E-07,8.78E-04,0,1.09E-02,0,1.02E+09,55078,3.29E+08,0,1.02E+09,-7.73E-05,7.55E-06,-0.3057,6.2673,-2.86E+06,8.30E+06,0,1.09E-02,0,1.02E+09,-3.21E-07,1.68E-07,,-4.13E-10
171,1,2.18E-05,-7.73E-05,7.57E-06,-3.70E-05,-2.95E-05,-7.73E-05,7.57E-06,-0.143,6.2597,5.7371,6.2597,-0.143,0.49675,-4.24E+06,1.03E+07,-4.55E+05,5.29E+05,-4.24E+06,1.03E+07,0,1.09E-02,6.53E-08,8.79E-04,0,1.09E-02,0,1.02E+09,16667,3.30E+08,0,1.02E+09,-7.73E-05,7.57E-06,-0.143,6.2597,-4.24E+06,1.03E+07,0,1.09E-02,0,1.02E+09,-2.05E-07,2.39E-07,,-4.13E-10
172,1,2.20E-05,-7.72E-05,7.63E-06,-3.63E-05,-2.87E-05,-7.72E-05,7.63E-06,-0.10662,6.2651,5.7532,6.2651,-0.10662,0.62458,-4.25E+06,6.49E+06,-7.49E+05,3.57E+05,-4.25E+06,6.49E+06,0,1.09E-02,1.44E-07,8.79E-04,0,1.09E-02,0,1.02E+09,39554,3.30E+08,0,1.02E+09,-7.72E-05,7.63E-06,-0.10662,6.2651,-4.25E+06,6.49E+06,0,1.09E-02,0,1.02E+09,-3.38E-07,1.61E-07,,-4.13E-10
173,1,2.21E-05,-7.72E-05,7.68E-06,-3.55E-05,-2.79E-05,-7.72E-05,7.68E-06,-0.16595,6.2757,5.7705,6.2757,-0.16595,0.52912,-6.91E+06,3.67E+06,-3.98E+05,1.02E+06,-6.91E+06,3.67E+06,0,1.09E-02,1.62E-07,8.79E-04,0,1.09E-02,0,1.02E+09,36957,3.30E+08,0,1.02E+09,-7.72E-05,7.68E-06,-0.16595,6.2757,-6.91E+06,3.67E+06,0,1.09E-02,0,1.02E+09,-1.80E-07,4.61E-07,,-4.13E-10
174,1,2.22E-05,-7.72E-05,7.70E-06,-3.48E-05,-2.71E-05,-7.72E-05,7.70E-06,-0.17817,6.2896,5.7705,6.2896,-0.17817,0.2701,-7.44E+06,2.87E+06,-1.07E+06,3.83E+05,-7.44E+06,2.87E+06,0,1.09E-02,1.55E-07,8.78E-04,0,1.09E-02,0,1.02E+09,31255,3.30E+08,0,1.02E+09,-7.72E-05,7.70E-06,-0.17817,6.2896,-7.44E+06,2.87E+06,0,1.09E-02,0,1.02E+09,-4.83E-07,1.73E-07,,-4.13E-10
175,1,2.23E-05,-7.72E-05,7.67E-06,-3.40E-05,-2.63E-05,-7.72E-05,7.67E-06,-0.54797,6.2865,5.7784,6.2865,-0.54797,0.13241,-6.05E+06,2.97E+06,-3.80E+05,8.93E+05,-6.05E+06,2.97E+06,0,1.09E-02,1.63E-07,8.78E-04,0,1.09E-02,0,1.02E+09,56364,3.29E+08,0,1.02E+09,-7.72E-05,7.67E-06,-0.54797,6.2865,-6.05E+06,2.97E+06,0,1.09E-02,0,1.02E+09,-1.72E-07,4.03E-07,,-4.13E-10
176,1,2.25E-05,-7.72E-05,7.62E-06,-3.33E-05,-2.55E-05,-7.72E-05,7.62E-06,-0.58158,6.2785,5.7612,6.2785,-0.58158,0.13524,-4.54E+06,4.28E+06,-4.96E+05,4.05E+05,-4.54E+06,4.28E+06,0,1.09E-02,1.62E-07,8.79E-04,0,1.09E-02,0,1.02E+09,63013,3.29E+08,0,1.02E+09,-7.72E-05,7.62E-06,-0.58158,6.2785,-4.54E+06,4.28E+06,0,1.09E-02,0,1.02E+09,-2.24E-07,1.83E-07,,-4.13E-10
177,1,2.26E-05,-7.73E-05,7.57E-06,-3.26E-05,-2.46E-05,-7.73E-05,7.57E-06,-0.46965,6.2672,5.7385,6.2672,-0.46965,0.12511,-2.31E+06,6.21E+06,-4.25E+05,5.37E+05,-2.31E+06,6.21E+06,0,1.09E-02,9.87E-08,8.79E-04,0,1.09E-02,0,1.02E+09,28937,3.29E+08,0,1.02E+09,-7.73E-05,7.57E-06,-0.46965,6.2672,-2.31E+06,6.21E+06,0,1.09E-02,0,1.02E+09,-1.92E-07,2.42E-07,,-4.13E-10
178,1,2.27E-05,-7.73E-05,7.55E-06,-3.18E-05,-2.38E-05,-7.73E-05,7.55E-06,-0.27949,6.2556,5.7335,6.2556,-0.27949,0.25493,-2.68E+06,6.00E+06,-4.39E+05,3.22E+05,-2.68E+06,6.00E+06,0,1.09E-02,1.34E-07,8.79E-04,0,1.09E-02,0,1.02E+09,40535,3.29E+08,0,1.02E+09,-7.73E-05,7.55E-06,-0.27949,6.2556,-2.68E+06,6.00E+06,0,1.09E-02,0,1.02E+09,-1.98E-07,1.45E-07,,-4.13E-10
179,1,2.29E-05,-7.73E-05,7.58E-06,-3.11E-05,-2.30E-05,-7.73E-05,7.58E-06,-0.11904,6.2598,5.7317,6.2598,-0.11904,0.48186,-4.72E+06,5.78E+06,-6.64E+05,5.07E+05,-4.72E+06,5.78E+06,0,1.09E-02,1.40E-07,8.78E-04,0,1.09E-02,0,1.02E+09,30333,3.29E+08,0,1.02E+09,-7.73E-05,7.58E-06,-0.11904,6.2598,-4.72E+06,5.78E+06,0,1.09E-02,0,1.02E+09,-3.00E-07,2.29E-07,,-4.13E-10
180,1,2.30E-05,-7.72E-05,7.65E-06,-3.04E-05,-2.22E-05,-7.72E-05,7.65E-06,-9.85E-02,6.2615,5.7453,6.2615,-9.85E-02,0.68301,-4.43E+06,4.49E+06,-2.65E+05,6.36E+05,-4.43E+06,4.49E+06,0,1.09E-02,1.49E-07,8.78E-04,0,1.09E-02,0,1.02E+09,49445,3.30E+08,0,1.02E+09,-7.72E-05,7.65E-06,-9.85E-02,6.2615,-4.43E+06,4.49E+06,0,1.09E-02,0,1.02E+09,-1.20E-07,2.87E-07,,-4.13E-10
181,1,2.31E-05,-7.72E-05,7.70E-06,-2.96E-05,-2.14E-05,-7.72E-05,7.70E-06,-0.12422,6.2605,5.7443,6.2605,-0.12422,0.43866,-6.25E+06,2.61E+06,-4.46E+05,4.48E+05,-6.25E+06,2.61E+06,0,1.09E-02,1.83E-07,8.78E-04,0,1.09E-02,0,1.02E+09,53674,3.30E+08,0,1.02E+09,-7.72E-05,7.70E-06,-0.12422,6.2605,-6.25E+06,2.61E+06,0,1.09E-02,0,1.02E+09,-2.01E-07,2.02E-07,,-4.13E-10
182,1,2.32E-05,-7.72E-05,7.71E-06,-2.89E-05,-2.06E-05,-7.72E-05,7.71E-06,-0.28139,6.2805,5.7724,6.2805,-0.28139,0.23682,-6.12E+06,2.16E+06,-3.77E+05,5.37E+05,-6.12E+06,2.16E+06,0,1.09E-02,1.51E-07,8.78E-04,0,1.09E-02,0,1.02E+09,31559,3.30E+08,0,1.02E+09,-7.72E-05,7.71E-06,-0.28139,6.2805,-6.12E+06,2.16E+06,0,1.09E-02,0,1.02E+09,-1.70E-07,2.42E-07,,-4.13E-10
183,1,2.34E-05,-7.72E-05,7.68E-06,-2.81E-05,-1.98E-05,-7.72E-05,7.68E-06,-0.52712,6.2877,5.787,6.2877,-0.52712,9.67E-02,-4.56E+06,3.47E+06,-3.31E+05,3.24E+05,-4.56E+06,3.47E+06,0,1.09E-02,1.45E-07,8.79E-04,0,1.09E-02,0,1.02E+09,56363,3.30E+08,0,1.02E+09,-7.72E-05,7.68E-06,-0.52712,6.2877,-4.56E+06,3.47E+06,0,1.09E-02,0,1.02E+09,-1.49E-07,1.46E-07,,-4.13E-10
184,1,2.35E-05,-7.72E-05,7.62E-06,-2.74E-05,-1.90E-05,-7.72E-05,7.62E-06,-0.53726,6.2927,5.7769,6.2927,-0.53726,0.10515,-4.59E+06,3.79E+06,-3.83E+05,3.24E+05,-4.59E+06,3.79E+06,0,1.09E-02,1.86E-07,8.79E-04,0,1.09E-02,0,1.02E+09,62795,3.29E+08,0,1.02E+09,-7.72E-05,7.62E-06,-0.53726,6.2927,-4.59E+06,3.79E+06,0,1.09E-02,0,1.02E+09,-1.73E-07,1.46E-07,,-4.13E-10
185,1,2.36E-05,-7.73E-05,7.57E-06,-2.67E-05,-1.82E-05,-7.73E-05,7.57E-06,-0.41356,6.2656,5.7546,6.2656,-0.41356,0.13753,-4.48E+06,7.32E+06,-3.46E+05,4.29E+05,-4.48E+06,7.32E+06,0,1.09E-02,2.58E-07,8.79E-04,0,1.09E-02,0,1.02E+09,1.09E+05,3.29E+08,0,1.02E+09,-7.73E-05,7.57E-06,-0.41356,6.2656,-4.48E+06,7.32E+06,0,1.09E-02,0,1.02E+09,-1.56E-07,1.94E-07,,-4.13E-10
186,1,2.37E-05,-7.73E-05,7.55E-06,-2.59E-05,-1.74E-05,-7.73E-05,7.55E-06,-0.25053,6.2557,5.7335,6.2557,-0.25053,0.18161,-2.13E+06,6.22E+06,-3.90E+05,2.77E+05,-2.13E+06,6.22E+06,0,1.09E-02,1.66E-07,8.78E-04,0,1.09E-02,0,1.02E+09,66175,3.29E+08,0,1.02E+09,-7.73E-05,7.55E-06,-0.25053,6.2557,-2.13E+06,6.22E+06,0,1.09E-02,0,1.02E+09,-1.76E-07,1.25E-07,,-4.13E-10
187,1,2.39E-05,-7.73E-05,7.56E-06,-2.52E-05,-1.66E-05,-7.73E-05,7.56E-06,-0.11626,6.261,5.7228,6.261,-0.11626,0.50928,-3.87E+06,6.54E+06,-2.95E+05,3.09E+05,-3.87E+06,6.54E+06,0,1.09E-02,2.08E-07,8.78E-04,0,1.09E-02,0,1.02E+09,50719,3.29E+08,0,1.02E+09,-7.73E-05,7.56E-06,-0.11626,6.261,-3.87E+06,6.54E+06,0,1.09E-02,0,1.02E+09,-1.33E-07,1.40E-07,,-4.13E-10
188,1,2.40E-05,-7.72E-05,7.62E-06,-2.44E-05,-1.58E-05,-7.72E-05,7.62E-06,-0.14752,6.253,5.7297,6.253,-0.14752,0.6951,-3.17E+06,4.92E+06,-4.50E+05,3.64E+05,-3.17E+06,4.92E+06,0,1.09E-02,1.31E-07,8.79E-04,0,1.09E-02,0,1.02E+09,43411,3.30E+08,0,1.02E+09,-7.72E-05,7.62E-06,-0.14752,6.253,-3.17E+06,4.92E+06,0,1.09E-02,0,1.02E+09,-2.03E-07,1.64E-07,,-4.13E-10
189,1,2.41E-05,-7.72E-05,7.68E-06,-2.37E-05,-1.50E-05,-7.72E-05,7.68E-06,-0.13135,6.2664,5.7463,6.2664,-0.13135,0.47476,-4.80E+06,2.88E+06,-3.19E+05,3.59E+05,-4.80E+06,2.88E+06,0,1.09E-02,1.41E-07,8.79E-04,0,1.09E-02,0,1.02E+09,28056,3.30E+08,0,1.02E+09,-7.72E-05,7.68E-06,-0.13135,6.2664,-4.80E+06,2.88E+06,0,1.09E-02,0,1.02E+09,-1.44E-07,1.62E-07,,-4.13E-10
190,1,2.43E-05,-7.72E-05,7.71E-06,-2.30E-05,-1.42E-05,-7.72E-05,7.71E-06,-0.13315,6.2784,5.7705,6.2784,-0.13315,0.18428,-6.76E+06,2.51E+06,-2.77E+05,4.59E+05,-6.76E+06,2.51E+06,0,1.09E-02,1.57E-07,8.78E-04,0,1.09E-02,0,1.02E+09,51845,3.30E+08,0,1.02E+09,-7.72E-05,7.71E-06,-0.13315,6.2784,-6.76E+06,2.51E+06,0,1.09E-02,0,1.02E+09,-1.25E-07,2.07E-07,,-4.13E-10
191,1,2.44E-05,-7.72E-05,7.69E-06,-2.22E-05,-1.34E-05,-7.72E-05,7.69E-06,-0.36637,6.2786,5.7817,6.2786,-0.36637,0.1127,-4.37E+06,2.65E+06,-4.04E+05,3.31E+05,-4.37E+06,2.65E+06,0,1.09E-02,6.51E-08,8.78E-04,0,1.09E-02,0,1.02E+09,23073,3.30E+08,0,1.02E+09,-7.72E-05,7.69E-06,-0.36637,6.2786,-4.37E+06,2.65E+06,0,1.09E-02,0,1.02E+09,-1.82E-07,1.49E-07,,-4.13E-10
192,1,2.45E-05,-7.72E-05,7.65E-06,-2.15E-05,-1.26E-05,-7.72E-05,7.65E-06,-0.58343,6.2942,5.7739,6.2942,-0.58343,0.10305,-3.99E+06,3.01E+06,-3.39E+05,2.72E+05,-3.99E+06,3.01E+06,0,1.09E-02,1.41E-07,8.79E-04,0,1.09E-02,0,1.02E+09,54430,3.29E+08,0,1.02E+09,-7.72E-05,7.65E-06,-0.58343,6.2942,-3.99E+06,3.01E+06,0,1.09E-02,0,1.02E+09,-1.53E-07,1.23E-07,,-4.13E-10
193,1,2.46E-05,-7.73E-05,7.60E-06,-2.07E-05,-1.18E-05,-7.73E-05,7.60E-06,-0.60945,6.2792,5.7575,6.2792,-0.60945,0.12042,-2.60E+06,5.18E+06,-4.15E+05,2.57E+05,-2.60E+06,5.18E+06,0,1.09E-02,1.52E-07,8.79E-04,0,1.09E-02,0,1.02E+09,39370,3.29E+08,0,1.02E+09,-7.73E-05,7.60E-06,-0.60945,6.2792,-2.60E+06,5.18E+06,0,1.09E-02,0,1.02E+09,-1.87E-07,1.16E-07,,-4.13E-10
194,1,2.48E-05,-7.73E-05,7.56E-06,-2.00E-05,-1.10E-05,-7.73E-05,7.56E-06,-0.39069,6.2685,5.7425,6.2685,-0.39069,0.15405,-2.56E+06,6.62E+06,-3.18E+05,4.78E+05,-2.56E+06,6.62E+06,0,1.09E-02,1.10E-07,8.79E-04,0,1.09E-02,0,1.02E+09,32639,3.29E+08,0,1.02E+09,-7.73E-05,7.56E-06,-0.39069,6.2685,-2.56E+06,6.62E+06,0,1.09E-02,0,1.02E+09,-1.44E-07,2.16E-07,,-4.14E-10
195,1,2.49E-05,-7.73E-05,7.56E-06,-1.93E-05,-1.02E-05,-7.73E-05,7.56E-06,-0.10629,6.2593,5.7278,6.2593,-0.10629,0.3301,-1.82E+06,6.64E+06,-3.24E+05,3.28E+05,-1.82E+06,6.64E+06,0,1.09E-02,1.59E-07,8.78E-04,0,1.09E-02,0,1.02E+09,48471,3.29E+08,0,1.02E+09,-7.73E-05,7.56E-06,-0.10629,6.2593,-1.82E+06,6.64E+06,0,1.09E-02,0,1.02E+09,-1.46E-07,1.48E-07,,-4.14E-10
196,1,2.50E-05,-7.73E-05,7.60E-06,-1.85E-05,-9.36E-06,-7.73E-05,7.60E-06,-0.12053,6.2459,5.7348,6.2459,-0.12053,0.60002,-3.02E+06,3.41E+06,-3.53E+05,3.07E+05,-3.02E+06,3.41E+06,0,1.09E-02,1.25E-07,8.78E-04,0,1.09E-02,0,1.02E+09,39928,3.30E+08,0,1.02E+09,-7.73E-05,7.60E-06,-0.12053,6.2459,-3.02E+06,3.41E+06,0,1.09E-02,0,1.02E+09,-1.59E-07,1.39E-07,,-4.14E-10
197,1,2.52E-05,-7.72E-05,7.65E-06,-1.78E-05,-8.56E-06,-7.72E-05,7.65E-06,-0.11411,6.2606,5.7402,6.2606,-0.11411,0.57391,-4.31E+06,3.19E+06,-3.68E+05,3.75E+05,-4.31E+06,3.19E+06,0,1.09E-02,2.27E-07,8.78E-04,0,1.09E-02,0,1.02E+09,63560,3.30E+08,0,1.02E+09,-7.72E-05,7.65E-06,-0.11411,6.2606,-4.31E+06,3.19E+06,0,1.09E-02,0,1.02E+09,-1.66E-07,1.69E-07,,-4.14E-10
198,1,2.53E-05,-7.72E-05,7.69E-06,-1.71E-05,-7.76E-06,-7.72E-05,7.69E-06,-0.21887,6.2743,5.7586,6.2743,-0.21887,0.4034,-6.22E+06,2.00E+06,-3.42E+05,4.32E+05,-6.22E+06,2.00E+06,0,1.09E-02,1.91E-07,8.79E-04,0,1.09E-02,0,1.02E+09,68457,3.30E+08,0,1.02E+09,-7.72E-05,7.69E-06,-0.21887,6.2743,-6.22E+06,2.00E+06,0,1.09E-02,0,1.02E+09,-1.54E-07,1.95E-07,,-4.14E-10
199,1,2.54E-05,-7.72E-05,7.69E-06,-1.63E-05,-6.95E-06,-7.72E-05,7.69E-06,-0.41007,6.2899,5.7758,6.2899,-0.41007,0.14486,-5.81E+06,2.06E+06,-3.11E+05,3.26E+05,-5.81E+06,2.06E+06,0,1.09E-02,1.49E-07,8.79E-04,0,1.09E-02,0,1.02E+09,30345,3.30E+08,0,1.02E+09,-7.72E-05,7.69E-06,-0.41007,6.2899,-5.81E+06,2.06E+06,0,1.09E-02,0,1.02E+09,-1.40E-07,1.47E-07,,-4.14E-10
200,1,2.55E-05,-7.72E-05,7.66E-06,-1.56E-05,-6.14E-06,-7.72E-05,7.66E-06,-0.67882,6.2986,5.7707,6.2986,-0.67882,0.13001,-3.72E+06,2.28E+06,-3.13E+05,2.94E+05,-3.72E+06,2.28E+06,0,1.09E-02,1.92E-07,8.79E-04,0,1.09E-02,0,1.02E+09,71610,3.30E+08,0,1.02E+09,-7.72E-05,7.66E-06,-0.67882,6.2986,-3.72E+06,2.28E+06,0,1.09E-02,0,1.02E+09,-1.41E-07,1.33E-07,,-4.14E-10
201,1,2.57E-05,-7.73E-05,7.61E-06,-1.48E-05,-5.34E-06,-7.73E-05,7.61E-06,-0.49925,6.2733,5.7666,6.2733,-0.49925,0.11492,-3.01E+06,4.77E+06,-3.95E+05,3.06E+05,-3.01E+06,4.77E+06,0,1.09E-02,1.40E-07,8.79E-04,0,1.09E-02,0,1.02E+09,51897,3.29E+08,0,1.02E+09,-7.73E-05,7.61E-06,-0.49925,6.2733,-3.01E+06,4.77E+06,0,1.09E-02,0,1.02E+09,-1.78E-07,1.38E-07,,-4.14E-10
202,1,6.00E-05,,,,,,,,,,,,,,,,,,,,,,,,,,,,,,,,,,,,,,,,,-3.53E-03,3.40E-03,6.78E-12,-0.41
,,,,,,,,,,,,,,,,,,,,,,,,,,,,,,,,,,,,,,,,,,,,,-4.20E-10,4.56
