Unnamed: 0,Steps,Time [s],[A] Directional Deformation Flexible (Min) [m],[B] Directional Deformation Flexible (Max) [m],[C] Directional Deformation SiC (Min) [m],[D] Directional Deformation SiC (Max) [m],[E] Directional Deformation Asperity (Min) [m],[F] Directional Deformation Asperity (Max) [m],[G] Directional Velocity Flexible (Min) [m/s],[H] Directional Velocity Flexible (Max) [m/s],[I] Directional Velocity SiC (Min) [m/s],[J] Directional Velocity SiC (Max) [m/s],[K] Directional Velocity Asperity (Min) [m/s],[L] Directional Velocity Asperity (Max) [m/s],[M] Directional Acceleration Flexible (Min) [m/s²],[N] Directional Acceleration Flexible (Max) [m/s²],[O] Directional Acceleration SiC (Min) [m/s²],[P] Directional Acceleration SiC (Max) [m/s²],[Q] Directional Acceleration Asperity (Min) [m/s²],[R] Directional Acceleration Asperity (Max) [m/s²],[S] Equivalent Elastic Strain Flexible (Min) [m/m],[T] Equivalent Elastic Strain Flexible (Max) [m/m],[U] Equivalent Elastic Strain SiC (Min) [m/m],[V] Equivalent Elastic Strain SiC (Max) [m/m],[W] Equivalent Elastic Strain Asperity (Min) [m/m],[X] Equivalent Elastic Strain Asperity (Max) [m/m],[Y] Equivalent Stress Flexible (Min) [Pa],[Z] Equivalent Stress Flexible (Max) [Pa],[AA] Equivalent Stress SiC (Min) [Pa],[AB] Equivalent Stress SiC (Max) [Pa],[AC] Equivalent Stress Asperity (Min) [Pa],[AD] Equivalent Stress Asperity (Max) [Pa],[AE] Directional Deformation 4 (Min) [m],[AF] Directional Deformation 4 (Max) [m],[AG] Directional Velocity 4 (Min) [m/s],[AH] Directional Velocity 4 (Max) [m/s],[AI] Directional Acceleration (Min) [m/s²],[AJ] Directional Acceleration (Max) [m/s²],[AK] Equivalent Elastic Strain 4 (Min) [m/m],[AL] Equivalent Elastic Strain 4 (Max) [m/m],[AM] Equivalent Stress 4 (Min) [Pa],[AN] Equivalent Stress 4 (Max) [Pa]
1,1,1.18E-38,0,0,0,0,0,0,-15,0,-15,-15,0,0,0,0,0,0,0,0,0,0,0,0,0,0,0,0,0,0,0,0,0,0,-15,0,0,0,0,0,0,0
2,1,1.26E-07,-1.89E-06,2.32E-08,-1.89E-06,-1.86E-06,-5.00E-07,2.32E-08,-16.909,0.38013,-16.909,-12.634,-14.509,3.80E-01,-2.09E+08,4.93E+08,-1.22E+08,4.93E+08,-2.09E+08,4.61E+07,0,3.55E-03,0,2.35E-04,0,3.55E-03,0,2.15E+08,0,6.17E+07,0,2.15E+08,-1.89E-06,2.32E-08,-16.909,3.80E-01,-2.09E+08,4.93E+08,0,3.55E-03,0,2.15E+08
3,1,2.54E-07,-3.82E-06,1.87E-10,-3.82E-06,-3.72E-06,-2.26E-06,1.87E-10,-15.409,0.34695,-15.409,-14.313,-14.591,0.34695,-2.71E+08,2.12E+08,-2.71E+08,2.12E+08,-5.86E+07,1.10E+08,0,7.64E-03,0.00E+00,4.26E-04,0,7.64E-03,0,4.75E+08,0,1.01E+08,0,4.75E+08,-3.82E-06,1.87E-10,-15.409,0.34695,-2.71E+08,2.12E+08,0,7.64E-03,0,4.75E+08
4,1,3.83E-07,-5.74E-06,9.65E-10,-5.74E-06,-5.58E-06,-4.14E-06,9.65E-10,-15.416,0.6137,-15.416,-12.89,-12.704,0.6137,-3.79E+08,2.67E+08,-2.11E+08,2.67E+08,-3.79E+08,3.69E+07,0,7.84E-03,9.65E-09,5.68E-04,0,7.84E-03,0,5.35E+08,4263.1,1.49E+08,0,5.35E+08,-5.74E-06,9.65E-10,-15.416,0.6137,-3.79E+08,2.67E+08,0,7.84E-03,0,5.35E+08
5,1,5.11E-07,-7.67E-06,2.01E-09,-7.67E-06,-7.32E-06,-6.06E-06,2.01E-09,-15.304,0.17712,-15.304,-13.735,-15.217,0.17712,-1.08E+08,1.25E+08,-1.08E+08,1.25E+08,-6.30E+07,3.54E+07,0,7.96E-03,6.54E-08,1.33E-03,0,7.96E-03,0,5.73E+08,26362,3.26E+08,0,5.73E+08,-7.67E-06,2.01E-09,-15.304,0.17712,-1.08E+08,1.25E+08,0,7.96E-03,0,5.73E+08
6,1,6.40E-07,-9.59E-06,3.51E-09,-9.59E-06,-9.09E-06,-7.92E-06,3.51E-09,-15.555,2.17E-02,-15.555,-13.747,-15.317,2.17E-02,-2.40E+08,4.84E+08,-1.77E+08,9.64E+07,-2.40E+08,4.84E+08,0,8.04E-03,1.95E-07,1.81E-03,0,8.04E-03,0,6.71E+08,8.13E+04,4.66E+08,0,6.71E+08,-9.59E-06,3.51E-09,-15.555,2.17E-02,-2.40E+08,4.84E+08,0,8.04E-03,0,6.71E+08
7,1,7.68E-07,-1.15E-05,4.33E-09,-1.15E-05,-1.09E-05,-1.05E-05,4.33E-09,-21.844,0.9309,-15.192,-14.068,-21.844,0.9309,-8.04E+07,1.38E+08,-8.04E+07,1.38E+08,-2.81E+07,4.63E+07,0,8.13E-03,3.67E-07,2.00E-03,0,8.13E-03,0,7.00E+08,1.01E+05,5.50E+08,0,7.00E+08,-1.15E-05,4.33E-09,-21.844,0.9309,-8.04E+07,1.38E+08,0,8.13E-03,0,7.00E+08
8,1,8.96E-07,-1.34E-05,5.60E-09,-1.34E-05,-1.28E-05,-1.28E-05,5.60E-09,-17.748,1.4081,-15.703,-13.794,-17.748,1.4081,-2.68E+08,2.76E+08,-1.95E+08,2.76E+08,-2.68E+08,2.51E+08,0,8.19E-03,3.73E-07,2.03E-03,0,8.19E-03,0,7.71E+08,9.49E+04,5.78E+08,0,7.71E+08,-1.34E-05,5.60E-09,-17.748,1.4081,-2.68E+08,2.76E+08,0,8.19E-03,0,7.71E+08
9,1,1.02E-06,-1.54E-05,7.31E-09,-1.54E-05,-1.46E-05,-1.49E-05,7.31E-09,-17.451,1.5255,-15.196,-13.336,-17.451,1.5255,-2.61E+08,2.26E+08,-2.61E+08,2.26E+08,-1.47E+08,1.63E+08,0,8.22E-03,6.03E-07,1.97E-03,0,8.22E-03,0,7.98E+08,2.16E+05,7.01E+08,0,7.98E+08,-1.54E-05,7.31E-09,-17.451,1.5255,-2.61E+08,2.26E+08,0,8.22E-03,0,7.98E+08
10,1,1.15E-06,-1.73E-05,8.16E-09,-1.73E-05,-1.64E-05,-1.70E-05,8.16E-09,-16.788,1.1121,-15.244,-13.363,-16.788,1.1121,-7.99E+07,1.09E+08,-7.99E+07,1.09E+08,-7.40E+07,8.49E+07,0,8.24E-03,7.62E-07,3.34E-03,0,8.24E-03,0,8.71E+08,2.62E+05,8.71E+08,0,7.98E+08,-1.73E-05,8.16E-09,-16.788,1.1121,-7.99E+07,1.09E+08,0,8.24E-03,0,8.71E+08
11,1,1.28E-06,-1.92E-05,8.92E-09,-1.92E-05,-1.81E-05,-1.91E-05,8.92E-09,-15.027,1.5487,-15.027,-13.247,-14.649,1.5487,-5.76E+07,8.56E+07,-5.76E+07,6.41E+07,-3.58E+07,8.56E+07,0,8.24E-03,7.49E-07,4.85E-03,0,8.24E-03,0,1.13E+09,2.80E+05,1.13E+09,0,8.35E+08,-1.92E-05,8.92E-09,-15.027,1.5487,-5.76E+07,8.56E+07,0,8.24E-03,0,1.13E+09
12,1,1.41E-06,-2.11E-05,6.88E-09,-2.11E-05,-1.99E-05,-2.11E-05,6.88E-09,-15.711,2.4181,-15.133,-13.663,-15.711,2.4181,-6.22E+07,4.73E+07,-6.22E+07,4.73E+07,-2.16E+07,3.23E+07,0,8.24E-03,7.01E-07,6.11E-03,0,8.24E-03,0,1.47E+09,2.27E+05,1.47E+09,0,8.61E+08,-2.11E-05,6.88E-09,-15.711,2.4181,-6.22E+07,4.73E+07,0,8.24E-03,0,1.47E+09
13,1,1.54E-06,-2.30E-05,1.03E-08,-2.30E-05,-2.17E-05,-2.30E-05,1.03E-08,-15.148,3.187,-14.949,-13.463,-15.148,3.187,-2.75E+08,1.08E+08,-2.75E+08,1.08E+08,-1.61E+08,1.07E+08,0,8.24E-03,7.42E-07,6.33E-03,0,8.24E-03,0,1.51E+09,3.21E+05,1.51E+09,0,8.83E+08,-2.30E-05,1.03E-08,-15.148,3.187,-2.75E+08,1.08E+08,0,8.24E-03,0,1.51E+09
14,1,1.67E-06,-2.49E-05,1.81E-08,-2.49E-05,-2.36E-05,-2.49E-05,1.81E-08,-18.678,0.79623,-14.956,-13.935,-18.678,0.79623,-7.88E+07,1.15E+08,-7.88E+07,1.15E+08,-2.73E+07,7.77E+07,0,8.23E-03,8.28E-07,5.84E-03,0,8.23E-03,0,1.55E+09,3.45E+05,1.55E+09,0,8.88E+08,-2.49E-05,1.81E-08,-18.678,0.79623,-7.88E+07,1.15E+08,0,8.23E-03,0,1.55E+09
15,1,1.80E-06,-2.68E-05,1.73E-08,-2.67E-05,-2.55E-05,-2.68E-05,1.73E-08,-17.856,1.7437,-14.814,-13.581,-17.856,1.7437,-5.61E+07,5.37E+07,-5.61E+07,5.37E+07,-2.44E+07,5.33E+07,0,8.23E-03,5.52E-07,5.10E-03,0,8.23E-03,0,1.56E+09,1.25E+05,1.56E+09,0,8.86E+08,-2.68E-05,1.73E-08,-17.856,1.7437,-5.61E+07,5.37E+07,0,8.23E-03,0,1.56E+09
16,1,1.92E-06,-2.86E-05,2.59E-07,-2.86E-05,-2.74E-05,-2.86E-05,2.59E-07,-18.088,3.1083,-14.985,-13.727,-18.088,3.1083,-2.96E+07,6.11E+07,-2.96E+07,6.11E+07,-1.86E+07,2.87E+07,0,8.24E-03,8.12E-07,4.43E-03,0,8.24E-03,0,1.53E+09,2.37E+05,1.53E+09,0,8.85E+08,-2.86E-05,2.59E-07,-18.088,3.1083,-2.96E+07,6.11E+07,0,8.24E-03,0,1.53E+09
17,1,2.05E-06,-3.05E-05,6.15E-07,-3.05E-05,-2.93E-05,-3.04E-05,6.15E-07,-18.044,3.1465,-14.896,-13.424,-18.044,3.1465,-1.88E+08,6.25E+08,-5.02E+07,6.25E+08,-1.88E+08,1.86E+07,0,8.23E-03,8.88E-07,4.81E-03,0,8.23E-03,0,1.50E+09,3.45E+05,1.50E+09,0,8.83E+08,-3.05E-05,6.15E-07,-18.044,3.1465,-1.88E+08,6.25E+08,0,8.23E-03,0,1.50E+09
18,1,2.18E-06,-3.23E-05,8.94E-07,-3.23E-05,-3.11E-05,-3.22E-05,8.94E-07,-15.956,2.5761,-15.265,-12.733,-15.956,2.5761,-1.46E+08,2.89E+08,-1.46E+08,2.50E+08,-1.25E+08,2.89E+08,0,8.21E-03,1.52E-06,4.68E-03,0,8.21E-03,0,1.51E+09,6.71E+05,1.51E+09,0,8.87E+08,-3.23E-05,8.94E-07,-15.956,2.5761,-1.46E+08,2.89E+08,0,8.21E-03,0,1.51E+09
19,1,2.31E-06,-3.42E-05,8.07E-07,-3.42E-05,-3.29E-05,-3.40E-05,8.07E-07,-15.007,1.664,-14.774,-13.268,-15.007,1.664,-1.10E+08,1.35E+08,-9.45E+07,1.35E+08,-1.10E+08,8.77E+07,0,8.21E-03,9.42E-07,4.60E-03,0,8.21E-03,0,1.51E+09,2.46E+05,1.51E+09,0,8.83E+08,-3.42E-05,8.07E-07,-15.007,1.664,-1.10E+08,1.35E+08,0,8.21E-03,0,1.51E+09
20,1,2.44E-06,-3.60E-05,1.04E-06,-3.60E-05,-3.47E-05,-3.57E-05,1.04E-06,-16.521,3.9134,-14.816,-13.64,-16.521,3.9134,-8.29E+07,5.44E+07,-6.23E+07,5.44E+07,-8.29E+07,3.74E+07,0,8.21E-03,9.12E-07,4.57E-03,0,8.21E-03,0,1.50E+09,2.97E+05,1.50E+09,0,8.82E+08,-3.60E-05,1.04E-06,-16.521,3.9134,-8.29E+07,5.44E+07,0,8.21E-03,0,1.50E+09
21,1,2.57E-06,-3.79E-05,1.32E-06,-3.79E-05,-3.65E-05,-3.75E-05,1.32E-06,-15.228,3.0483,-14.669,-13.064,-15.228,3.0483,-1.25E+08,2.61E+08,-1.25E+08,1.51E+08,-1.07E+08,2.61E+08,0,8.19E-03,9.27E-07,4.50E-03,0,8.19E-03,0,1.53E+09,3.93E+05,1.53E+09,0,8.82E+08,-3.79E-05,1.32E-06,-15.228,3.0483,-1.25E+08,2.61E+08,0,8.19E-03,0,1.53E+09
22,1,2.69E-06,-3.97E-05,1.43E-06,-3.97E-05,-3.83E-05,-3.92E-05,1.43E-06,-14.676,0.26836,-14.672,-8.0807,-14.676,0.26836,-7.42E+08,7.74E+08,-2.89E+08,7.74E+08,-7.42E+08,2.44E+08,0,8.18E-03,1.82E-06,4.52E-03,0,8.18E-03,0,1.59E+09,3.83E+05,1.59E+09,0,8.75E+08,-3.97E-05,1.43E-06,-14.676,0.26836,-7.42E+08,7.74E+08,0,8.18E-03,0,1.59E+09
23,1,2.82E-06,-4.15E-05,1.22E-06,-4.15E-05,-4.00E-05,-4.09E-05,1.22E-06,-15.888,0.50915,-14.956,-11.455,-15.888,0.50915,-3.27E+08,2.83E+08,-1.45E+08,2.83E+08,-3.27E+08,1.01E+08,0,8.18E-03,9.65E-07,4.33E-03,0,8.18E-03,0,1.70E+09,1.80E+05,1.70E+09,0,8.73E+08,-4.15E-05,1.22E-06,-15.888,0.50915,-3.27E+08,2.83E+08,0,8.18E-03,0,1.70E+09
24,1,2.95E-06,-4.33E-05,1.22E-06,-4.33E-05,-4.18E-05,-4.26E-05,1.22E-06,-16.525,1.2921,-14.173,-12.022,-16.525,1.2921,-7.13E+07,7.05E+07,-7.13E+07,6.19E+07,-6.66E+07,7.05E+07,0,8.19E-03,1.19E-06,4.11E-03,0,8.19E-03,0,1.76E+09,2.67E+05,1.76E+09,0,8.74E+08,-4.33E-05,1.22E-06,-16.525,1.2921,-7.13E+07,7.05E+07,0,8.19E-03,0,1.76E+09
25,1,3.08E-06,-4.51E-05,5.36E-07,-4.51E-05,-4.36E-05,-4.42E-05,5.36E-07,-15.903,1.9897,-14.454,-11.721,-15.903,1.9897,-2.09E+08,2.09E+08,-2.09E+08,2.09E+08,-1.23E+08,8.40E+07,0.00E+00,8.20E-03,1.65E-06,4.32E-03,0,8.20E-03,0,1.81E+09,7.10E+05,1.81E+09,0,8.80E+08,-4.51E-05,5.36E-07,-15.903,1.9897,-2.09E+08,2.09E+08,0,8.20E-03,0,1.81E+09
26,1,3.21E-06,-4.69E-05,2.45E-07,-4.69E-05,-4.53E-05,-4.58E-05,2.45E-07,-15.951,1.0211,-14.306,-12.312,-15.951,1.0211,-1.94E+08,1.41E+08,-1.94E+08,1.41E+08,-8.47E+07,6.63E+07,0.00E+00,8.20E-03,2.80E-06,5.30E-03,0,8.20E-03,0,1.96E+09,1.22E+06,1.96E+09,0,8.77E+08,-4.69E-05,2.45E-07,-15.951,1.0211,-1.94E+08,1.41E+08,0,8.20E-03,0,1.96E+09
27,1,3.34E-06,-4.86E-05,3.01E-08,-4.86E-05,-4.69E-05,-4.74E-05,3.01E-08,-15.121,1.0698,-13.965,-12.632,-15.121,1.0698,-1.57E+08,1.92E+08,-1.48E+08,1.92E+08,-1.57E+08,1.73E+08,0.00E+00,8.19E-03,1.77E-06,6.00E-03,0,8.19E-03,0,2.05E+09,6.50E+05,2.05E+09,0,8.75E+08,-4.86E-05,3.01E-08,-15.121,1.0698,-1.57E+08,1.92E+08,0,8.19E-03,0,2.05E+09
28,1,3.46E-06,-5.04E-05,3.05E-08,-5.04E-05,-4.86E-05,-4.91E-05,3.05E-08,-13.808,1.1194,-13.808,-12.348,-13.651,1.1194,-1.31E+08,1.07E+08,-1.31E+08,8.45E+07,-1.12E+08,1.07E+08,0.00E+00,8.21E-03,1.96E-06,6.10E-03,0,8.21E-03,0,2.06E+09,6.20E+05,2.06E+09,0,8.74E+08,-5.04E-05,3.05E-08,-13.808,1.1194,-1.31E+08,1.07E+08,0,8.21E-03,0,2.06E+09
29,1,3.59E-06,-5.21E-05,2.32E-08,-5.21E-05,-5.03E-05,-5.07E-05,2.32E-08,-15.326,1.7342,-13.522,-12.174,-15.326,1.7342,-1.33E+08,7.82E+07,-1.33E+08,6.65E+07,-7.77E+07,7.82E+07,0.00E+00,8.20E-03,1.99E-06,6.17E-03,0,8.20E-03,0,2.09E+09,6.41E+05,2.09E+09,0,8.78E+08,-5.21E-05,2.32E-08,-15.326,1.7342,-1.33E+08,7.82E+07,0,8.20E-03,0,2.09E+09
30,1,3.72E-06,-5.38E-05,2.80E-08,-5.38E-05,-5.20E-05,-5.22E-05,2.80E-08,-15.972,2.0508,-13.58,-12.322,-15.972,2.0508,-7.73E+07,5.85E+07,-7.73E+07,5.85E+07,-5.45E+07,2.55E+07,0.00E+00,8.20E-03,2.37E-06,6.33E-03,0,8.20E-03,0,2.14E+09,1.05E+06,2.14E+09,0,8.79E+08,-5.38E-05,2.80E-08,-15.972,2.0508,-7.73E+07,5.85E+07,0,8.20E-03,0,2.14E+09
31,1,3.85E-06,-5.55E-05,1.19E-07,-5.55E-05,-5.37E-05,-5.37E-05,1.19E-07,-15.366,1.6533,-13.288,-12.468,-15.366,1.6533,-8.17E+07,4.35E+07,-8.17E+07,4.22E+07,-2.63E+07,4.35E+07,0.00E+00,8.18E-03,2.09E-06,6.45E-03,0,8.18E-03,0,2.17E+09,7.29E+05,2.17E+09,0,8.80E+08,-5.55E-05,1.19E-07,-15.366,1.6533,-8.17E+07,4.35E+07,0,8.18E-03,0,2.17E+09
32,1,3.98E-06,-5.71E-05,4.19E-07,-5.71E-05,-5.53E-05,-5.53E-05,4.19E-07,-15.515,2.5773,-13.168,-12.551,-15.515,2.5773,-5.40E+07,5.85E+07,-5.40E+07,5.85E+07,-1.49E+07,2.23E+07,0.00E+00,8.16E-03,1.69E-06,6.60E-03,0,8.16E-03,0,2.21E+09,4.89E+05,2.21E+09,0,8.80E+08,-5.71E-05,4.19E-07,-15.515,2.5773,-5.40E+07,5.85E+07,0,8.16E-03,0,2.21E+09
33,1,4.11E-06,-5.88E-05,7.32E-07,-5.88E-05,-5.69E-05,-5.68E-05,7.32E-07,-15.337,2.473,-13.017,-12.425,-15.337,2.473,-6.70E+07,6.17E+07,-6.70E+07,6.17E+07,-1.25E+07,1.78E+07,0.00E+00,8.17E-03,2.75E-06,6.73E-03,0,8.17E-03,0,2.24E+09,8.78E+05,2.24E+09,0,8.81E+08,-5.88E-05,7.32E-07,-15.337,2.473,-6.70E+07,6.17E+07,0,8.17E-03,0,2.24E+09
34,1,4.23E-06,-6.04E-05,1.06E-06,-6.04E-05,-5.85E-05,-5.83E-05,1.06E-06,-14.893,2.732,-12.791,-12.329,-14.893,2.732,-3.80E+07,5.65E+07,-3.80E+07,5.65E+07,-1.57E+07,1.63E+07,0.00E+00,8.17E-03,2.29E-06,6.84E-03,0,8.17E-03,0,2.26E+09,8.67E+05,2.26E+09,0,8.82E+08,-6.04E-05,1.06E-06,-14.893,2.732,-3.80E+07,5.65E+07,0,8.17E-03,0,2.26E+09
35,1,4.36E-06,-6.20E-05,1.40E-06,-6.20E-05,-6.01E-05,-5.97E-05,1.40E-06,-14.362,2.2885,-12.697,-11.839,-14.362,2.2885,-3.18E+07,2.90E+07,-3.18E+07,2.90E+07,-1.28E+07,1.49E+07,0.00E+00,8.17E-03,1.85E-06,6.94E-03,0,8.17E-03,0,2.29E+09,7.47E+05,2.29E+09,0,8.81E+08,-6.20E-05,1.40E-06,-14.362,2.2885,-3.18E+07,2.90E+07,0,8.17E-03,0,2.29E+09
36,1,4.49E-06,-6.36E-05,1.66E-06,-6.36E-05,-6.17E-05,-6.12E-05,1.66E-06,-13.714,1.91,-12.433,-11.742,-13.714,1.91,-5.04E+07,5.23E+07,-5.04E+07,5.23E+07,-1.31E+07,1.19E+07,0.00E+00,8.17E-03,1.71E-06,7.00E-03,0,8.17E-03,0,2.29E+09,5.52E+05,2.29E+09,0,8.82E+08,-6.36E-05,1.66E-06,-13.714,1.91,-5.04E+07,5.23E+07,0,8.17E-03,0,2.29E+09
37,1,4.62E-06,-6.52E-05,1.88E-06,-6.52E-05,-6.32E-05,-6.27E-05,1.88E-06,-13.014,1.4204,-12.475,-10.409,-13.014,1.4204,-1.67E+08,9.35E+07,-1.67E+08,9.35E+07,-7.28E+07,8.45E+07,0.00E+00,8.17E-03,3.02E-06,7.02E-03,0,8.17E-03,0,2.31E+09,9.15E+05,2.31E+09,0,8.84E+08,-6.52E-05,1.88E-06,-13.014,1.4204,-1.67E+08,9.35E+07,0,8.17E-03,0,2.31E+09
38,1,4.75E-06,-6.68E-05,2.00E-06,-6.68E-05,-6.48E-05,-6.43E-05,2.00E-06,-12.741,1.1755,-12.5,-11.628,-12.741,1.1755,-1.09E+08,9.23E+07,-8.64E+07,9.23E+07,-1.09E+08,4.00E+07,0.00E+00,8.17E-03,3.00E-06,6.99E-03,0,8.17E-03,0,2.30E+09,1.24E+06,2.30E+09,0,8.85E+08,-6.68E-05,2.00E-06,-12.741,1.1755,-1.09E+08,9.23E+07,0,8.17E-03,0,2.30E+09
39,1,4.88E-06,-6.83E-05,2.15E-06,-6.83E-05,-6.63E-05,-6.57E-05,2.15E-06,-12.501,1.5713,-12.444,-11.213,-12.501,1.5713,-4.37E+07,5.13E+07,-4.37E+07,4.32E+07,-2.76E+07,5.13E+07,0.00E+00,8.16E-03,1.93E-06,6.80E-03,0,8.16E-03,0,2.23E+09,7.73E+05,2.23E+09,0,8.85E+08,-6.83E-05,2.15E-06,-12.501,1.5713,-4.37E+07,5.13E+07,0,8.16E-03,0,2.23E+09
40,1,5.00E-06,-6.98E-05,2.35E-06,-6.98E-05,-6.78E-05,-6.72E-05,2.35E-06,-12.487,1.9876,-11.865,-11.002,-12.487,1.9876,-6.95E+07,5.67E+07,-6.95E+07,5.67E+07,-2.15E+07,3.55E+07,0.00E+00,8.15E-03,1.91E-06,6.57E-03,0,8.15E-03,0,2.16E+09,6.15E+05,2.16E+09,0,8.85E+08,-6.98E-05,2.35E-06,-12.487,1.9876,-6.95E+07,5.67E+07,0,8.15E-03,0,2.16E+09
41,1,5.13E-06,-7.13E-05,2.61E-06,-7.13E-05,-6.93E-05,-6.87E-05,2.61E-06,-12.268,2.2209,-11.794,-11.083,-12.268,2.2209,-5.35E+07,5.28E+07,-5.35E+07,5.28E+07,-4.93E+07,4.25E+07,0.00E+00,8.14E-03,3.18E-06,6.33E-03,0,8.14E-03,0,2.07E+09,1.02E+06,2.07E+09,0,8.85E+08,-7.13E-05,2.61E-06,-12.268,2.2209,-5.35E+07,5.28E+07,0,8.14E-03,0,2.07E+09
42,1,5.26E-06,-7.28E-05,2.81E-06,-7.28E-05,-7.08E-05,-7.01E-05,2.81E-06,-11.989,2.1295,-11.557,-10.918,-11.989,2.1295,-2.41E+07,7.26E+07,-2.41E+07,7.26E+07,-1.23E+07,2.76E+07,0.00E+00,8.13E-03,3.27E-06,6.14E-03,0,8.13E-03,0,2.00E+09,1.12E+06,2.00E+09,0,8.85E+08,-7.28E-05,2.81E-06,-11.989,2.1295,-2.41E+07,7.26E+07,0,8.13E-03,0,2.00E+09
43,1,5.39E-06,-7.43E-05,3.01E-06,-7.43E-05,-7.23E-05,-7.16E-05,3.01E-06,-12.684,1.7104,-11.474,-10.932,-12.684,1.7104,-7.49E+07,6.41E+07,-7.49E+07,6.41E+07,-1.57E+07,2.47E+07,0.00E+00,8.13E-03,2.77E-06,5.89E-03,0,8.13E-03,0,1.91E+09,1.05E+06,1.91E+09,0,8.85E+08,-7.43E-05,3.01E-06,-12.684,1.7104,-7.49E+07,6.41E+07,0,8.13E-03,0,1.91E+09
44,1,5.52E-06,-7.57E-05,3.23E-06,-7.57E-05,-7.37E-05,-7.30E-05,3.23E-06,-12.081,1.5097,-11.236,-10.756,-12.081,1.5097,-2.99E+07,7.13E+07,-2.99E+07,7.13E+07,-1.64E+07,1.49E+07,0.00E+00,8.13E-03,1.80E-06,5.86E-03,0,8.13E-03,0,1.80E+09,5.97E+05,1.80E+09,0,8.84E+08,-7.57E-05,3.23E-06,-12.081,1.5097,-2.99E+07,7.13E+07,0,8.13E-03,0,1.80E+09
45,1,5.65E-06,-7.72E-05,3.39E-06,-7.72E-05,-7.52E-05,-7.44E-05,3.39E-06,-11.997,1.2934,-11.122,-10.616,-11.997,1.2934,-4.01E+07,3.71E+07,-4.01E+07,3.71E+07,-1.05E+07,1.09E+07,0.00E+00,8.12E-03,2.91E-06,5.85E-03,0,8.12E-03,0,1.74E+09,9.05E+05,1.74E+09,0,8.84E+08,-7.72E-05,3.39E-06,-11.997,1.2934,-4.01E+07,3.71E+07,0,8.12E-03,0,1.74E+09
46,1,5.78E-06,-7.86E-05,3.52E-06,-7.86E-05,-7.66E-05,-7.58E-05,3.52E-06,-11.765,1.4331,-10.955,-10.44,-11.765,1.4331,-4.11E+07,5.80E+07,-4.11E+07,5.80E+07,-1.08E+07,1.46E+07,0.00E+00,8.12E-03,3.06E-06,5.83E-03,0,8.12E-03,0,1.80E+09,1.17E+06,1.80E+09,0,8.84E+08,-7.86E-05,3.52E-06,-11.765,1.4331,-4.11E+07,5.80E+07,0,8.12E-03,0,1.80E+09
47,1,5.90E-06,-7.99E-05,3.73E-06,-7.99E-05,-7.80E-05,-7.71E-05,3.73E-06,-11.554,1.4668,-10.774,-10.328,-11.554,1.4668,-3.73E+07,3.50E+07,-3.73E+07,3.50E+07,-1.31E+07,1.11E+07,0.00E+00,8.12E-03,3.20E-06,5.82E-03,0,8.12E-03,0,1.85E+09,1.20E+06,1.85E+09,0,8.84E+08,-7.99E-05,3.73E-06,-11.554,1.4668,-3.73E+07,3.50E+07,0,8.12E-03,0,1.85E+09
48,1,6.03E-06,-8.13E-05,3.91E-06,-8.13E-05,-7.93E-05,-7.85E-05,3.91E-06,-11.305,1.812,-10.61,-10.196,-11.305,1.812,-2.07E+07,3.22E+07,-2.07E+07,3.22E+07,-1.14E+07,1.21E+07,0.00E+00,8.12E-03,2.15E-06,5.86E-03,0,8.12E-03,0,1.90E+09,6.42E+05,1.90E+09,0,8.83E+08,-8.13E-05,3.91E-06,-11.305,1.812,-2.07E+07,3.22E+07,0,8.12E-03,0,1.90E+09
49,1,6.16E-06,-8.26E-05,4.16E-06,-8.26E-05,-8.06E-05,-7.98E-05,4.16E-06,-10.988,1.9531,-10.395,-10.034,-10.988,1.9531,-4.14E+07,3.38E+07,-4.14E+07,3.38E+07,-1.05E+07,1.15E+07,0.00E+00,8.12E-03,2.54E-06,6.07E-03,0,8.12E-03,0,1.94E+09,9.96E+05,1.94E+09,0,8.83E+08,-8.26E-05,4.16E-06,-10.988,1.9531,-4.14E+07,3.38E+07,0,8.12E-03,0,1.94E+09
50,1,6.29E-06,-8.40E-05,4.37E-06,-8.40E-05,-8.19E-05,-8.11E-05,4.37E-06,-10.782,1.8314,-10.245,-9.8955,-10.782,1.8314,-1.93E+07,3.88E+07,-1.93E+07,3.88E+07,-8.08E+06,1.13E+07,0.00E+00,8.12E-03,3.62E-06,6.25E-03,0,8.12E-03,0,1.97E+09,1.62E+06,1.97E+09,0,8.83E+08,-8.40E-05,4.37E-06,-10.782,1.8314,-1.93E+07,3.88E+07,0,8.12E-03,0,1.97E+09
51,1,6.42E-06,-8.53E-05,4.62E-06,-8.53E-05,-8.32E-05,-8.23E-05,4.62E-06,-10.486,1.8928,-10.036,-9.6925,-10.486,1.8928,-1.53E+07,3.37E+07,-1.53E+07,3.37E+07,-1.08E+07,1.07E+07,0.00E+00,8.12E-03,3.23E-06,6.42E-03,0,8.12E-03,0,2.00E+09,1.41E+06,2.00E+09,0,8.82E+08,-8.53E-05,4.62E-06,-10.486,1.8928,-1.53E+07,3.37E+07,0,8.12E-03,0,2.00E+09
52,1,6.55E-06,-8.65E-05,4.82E-06,-8.65E-05,-8.44E-05,-8.36E-05,4.82E-06,-10.9,1.4731,-9.8504,-8.9766,-10.9,1.4731,-8.19E+07,1.44E+08,-8.19E+07,1.44E+08,-3.33E+07,4.34E+07,0.00E+00,8.12E-03,2.15E-06,6.65E-03,0,8.12E-03,0,1.92E+09,7.63E+05,1.92E+09,0,8.82E+08,-8.65E-05,4.82E-06,-10.9,1.4731,-8.19E+07,1.44E+08,0,8.12E-03,0,1.92E+09
53,1,6.67E-06,-8.78E-05,5.00E-06,-8.78E-05,-8.56E-05,-8.48E-05,5.00E-06,-11.742,0.85523,-9.7022,-8.0515,-11.742,0.85523,-3.12E+08,2.95E+08,-3.04E+08,2.95E+08,-3.12E+08,1.71E+08,0.00E+00,8.12E-03,2.49E-06,6.83E-03,0,8.12E-03,0,1.94E+09,9.69E+05,1.94E+09,0,8.82E+08,-8.78E-05,5.00E-06,-11.742,0.85523,-3.12E+08,2.95E+08,0,8.12E-03,0,1.94E+09
54,1,6.80E-06,-8.90E-05,4.89E-06,-8.90E-05,-8.68E-05,-8.61E-05,4.89E-06,-10.479,0.95736,-9.4984,-6.2665,-10.479,0.95736,-1.28E+08,1.02E+08,-7.48E+07,9.93E+07,-1.28E+08,1.02E+08,0.00E+00,8.12E-03,3.82E-06,6.82E-03,0,8.12E-03,0,1.94E+09,1.64E+06,1.94E+09,0,8.83E+08,-8.90E-05,4.89E-06,-10.479,0.95736,-1.28E+08,1.02E+08,0,8.12E-03,0,1.94E+09
55,1,6.93E-06,-9.02E-05,4.38E-06,-9.02E-05,-8.80E-05,-8.73E-05,4.38E-06,-11.288,0.87083,-9.343,-8.0516,-11.288,0.87083,-1.09E+08,8.94E+07,-3.47E+07,4.22E+07,-1.09E+08,8.94E+07,0.00E+00,8.12E-03,3.13E-06,6.59E-03,0,8.12E-03,0,1.88E+09,1.36E+06,1.88E+09,0,8.83E+08,-9.02E-05,4.38E-06,-11.288,0.87083,-1.09E+08,8.94E+07,0,8.12E-03,0,1.88E+09
56,1,7.06E-06,-9.14E-05,3.79E-06,-9.14E-05,-8.91E-05,-8.85E-05,3.79E-06,-11.331,0.95334,-9.1447,-8.0766,-11.331,0.95334,-5.38E+07,4.98E+07,-2.44E+07,3.42E+07,-5.38E+07,4.98E+07,0.00E+00,8.12E-03,2.92E-06,6.44E-03,0,8.12E-03,0.00E+00,1.88E+09,1.02E+06,1.88E+09,0,8.84E+08,-9.14E-05,3.79E-06,-11.331,0.95334,-5.38E+07,4.98E+07,0,8.12E-03,0,1.88E+09
57,1,7.19E-06,-9.26E-05,3.45E-06,-9.26E-05,-9.02E-05,-8.97E-05,3.45E-06,-10.917,0.84632,-1.01E+01,-7.907,-1.09E+01,0.84632,-2.01E+08,2.28E+08,-2.01E+08,2.28E+08,-5.23E+07,9.70E+07,0.00E+00,8.11E-03,2.69E-06,6.23E-03,0,8.11E-03,0.00E+00,1.88E+09,1.09E+06,1.88E+09,0,8.84E+08,-9.26E-05,3.45E-06,-10.917,0.84632,-2.01E+08,2.28E+08,0,8.11E-03,0,1.88E+09
58,1,7.32E-06,-9.37E-05,3.36E-06,-9.37E-05,-9.13E-05,-9.08E-05,3.36E-06,-10.602,1.0874,-9.1274,-7.5186,-10.602,1.0874,-9.69E+07,1.51E+08,-9.69E+07,1.51E+08,-7.60E+07,6.33E+07,0.00E+00,8.11E-03,3.58E-06,6.01E-03,0,8.11E-03,0.00E+00,1.93E+09,1.31E+06,1.93E+09,0,8.84E+08,-9.37E-05,3.36E-06,-10.602,1.0874,-9.69E+07,1.51E+08,0,8.11E-03,0,1.93E+09
59,1,7.44E-06,-9.48E-05,3.20E-06,-9.48E-05,-9.23E-05,-9.19E-05,3.20E-06,-10.561,1.036,-8.7161,-7.5914,-10.561,1.036,-9.19E+07,8.19E+07,-9.19E+07,8.19E+07,-2.97E+07,5.08E+07,0.00E+00,8.11E-03,5.14E-06,6.42E-03,0,8.11E-03,0.00E+00,2.11E+09,1.90E+06,2.11E+09,0,8.84E+08,-9.48E-05,3.20E-06,-10.561,1.036,-9.19E+07,8.19E+07,0,8.11E-03,0,2.11E+09
60,1,7.57E-06,-9.59E-05,3.15E-06,-9.59E-05,-9.33E-05,-9.30E-05,3.15E-06,-9.1073,4.42E-01,-8.5442,-6.4412,-9.1073,0.44232,-1.25E+08,6.88E+07,-1.14E+08,6.88E+07,-1.25E+08,3.95E+07,0.00E+00,8.11E-03,3.96E-06,6.62E-03,0,8.11E-03,0.00E+00,2.21E+09,1.66E+06,2.21E+09,0,8.84E+08,-9.59E-05,3.15E-06,-9.1073,0.44232,-1.25E+08,6.88E+07,0,8.11E-03,0,2.21E+09
61,1,7.70E-06,-9.69E-05,3.12E-06,-9.69E-05,-9.43E-05,-9.41E-05,3.12E-06,-8.6149,0.95174,-8.2734,-6.9609,-8.6149,0.95174,-5.77E+07,1.41E+08,-4.03E+07,1.41E+08,-5.77E+07,3.93E+07,0.00E+00,8.14E-03,2.88E-06,6.60E-03,0,8.14E-03,0.00E+00,2.30E+09,1.09E+06,2.30E+09,0,8.85E+08,-9.69E-05,3.12E-06,-8.6149,0.95174,-5.77E+07,1.41E+08,0,8.14E-03,0,2.30E+09
62,1,7.83E-06,-9.80E-05,3.15E-06,-9.80E-05,-9.53E-05,-9.51E-05,3.15E-06,-8.5573,0.39486,-7.8824,-6.7312,-8.5573,0.39486,-6.37E+07,4.43E+07,-6.37E+07,4.43E+07,-2.33E+07,2.22E+07,0.00E+00,8.17E-03,3.47E-06,6.51E-03,0,8.17E-03,0.00E+00,2.35E+09,1.41E+06,2.35E+09,0,8.85E+08,-9.80E-05,3.15E-06,-8.5573,0.39486,-6.37E+07,4.43E+07,0,8.17E-03,0,2.35E+09
63,1,7.96E-06,-9.90E-05,3.07E-06,-9.90E-05,-9.63E-05,-9.61E-05,3.07E-06,-9.4241,0.29245,-7.6738,-6.5799,-9.4241,0.29245,-1.32E+08,4.69E+07,-1.02E+08,4.66E+07,-1.32E+08,4.69E+07,0.00E+00,8.19E-03,3.48E-06,6.37E-03,0,8.19E-03,0.00E+00,2.36E+09,1.51E+06,2.36E+09,0,8.85E+08,-9.90E-05,3.07E-06,-9.4241,0.29245,-1.32E+08,4.69E+07,0,8.19E-03,0,2.36E+09
64,1,8.09E-06,-9.99E-05,2.42E-06,-9.99E-05,-9.73E-05,-9.71E-05,2.42E-06,-8.6652,0.20974,-7.4485,-6.3465,-8.6652,0.20974,-4.02E+07,7.83E+07,-4.02E+07,5.71E+07,-3.17E+07,7.83E+07,0.00E+00,8.20E-03,3.51E-06,6.24E-03,0,8.20E-03,0.00E+00,2.35E+09,1.23E+06,2.35E+09,0,8.85E+08,-9.99E-05,2.42E-06,-8.6652,0.20974,-4.02E+07,7.83E+07,0,8.20E-03,0,2.35E+09
65,1,8.21E-06,-1.01E-04,1.82E-06,-1.01E-04,-9.82E-05,-9.81E-05,1.82E-06,-8.513,0.44324,-7.224,-6.3131,-8.513,0.44324,-3.14E+07,3.26E+07,-3.14E+07,3.26E+07,-2.82E+07,2.21E+07,0.00E+00,8.20E-03,3.82E-06,6.11E-03,0,8.20E-03,0.00E+00,2.35E+09,1.37E+06,2.35E+09,0,8.86E+08,-1.01E-04,1.82E-06,-8.513,0.44324,-3.14E+07,3.26E+07,0,8.20E-03,0,2.35E+09
66,1,8.34E-06,-1.02E-04,1.28E-06,-1.02E-04,-9.91E-05,-9.90E-05,1.28E-06,-8.3449,0.6295,-6.9898,-6.2312,-8.3449,0.6295,-3.16E+07,3.05E+07,-3.16E+07,3.05E+07,-1.10E+07,1.73E+07,0.00E+00,8.22E-03,3.49E-06,6.01E-03,0,8.22E-03,0.00E+00,2.34E+09,1.37E+06,2.34E+09,0,8.86E+08,-1.02E-04,1.28E-06,-8.3449,0.6295,-3.16E+07,3.05E+07,0,8.22E-03,0,2.34E+09
67,1,8.47E-06,-1.03E-04,1.37E-06,-1.03E-04,-9.99E-05,-9.99E-05,1.37E-06,-8.2993,1.2109,-6.7683,-6.1135,-8.2993,1.2109,-1.85E+07,2.69E+07,-1.85E+07,2.69E+07,-1.40E+07,2.11E+07,0.00E+00,8.23E-03,4.41E-06,6.07E-03,0,8.23E-03,0.00E+00,2.33E+09,1.77E+06,2.33E+09,0,8.86E+08,-1.03E-04,1.37E-06,-8.2993,1.2109,-1.85E+07,2.69E+07,0,8.23E-03,0,2.33E+09
68,1,8.60E-06,-1.03E-04,1.51E-06,-1.03E-04,-1.01E-04,-1.01E-04,1.51E-06,-7.9165,1.0076,-6.5311,-5.8346,-7.9165,1.0076,-3.03E+07,2.77E+07,-3.03E+07,2.77E+07,-2.06E+07,1.63E+07,0.00E+00,8.24E-03,5.30E-06,6.30E-03,0,8.24E-03,0.00E+00,2.46E+09,2.14E+06,2.46E+09,0,8.86E+08,-1.03E-04,1.51E-06,-7.9165,1.0076,-3.03E+07,2.77E+07,0,8.24E-03,0,2.46E+09
69,1,8.73E-06,-1.04E-04,1.57E-06,-1.04E-04,-1.02E-04,-1.02E-04,1.57E-06,-7.5425,0.46597,-6.3008,-5.6725,-7.5425,0.46597,-3.46E+07,5.31E+07,-3.46E+07,2.83E+07,-2.18E+07,5.31E+07,0.00E+00,8.25E-03,4.17E-06,6.52E-03,0,8.25E-03,0.00E+00,2.55E+09,1.56E+06,2.55E+09,0,8.85E+08,-1.04E-04,1.57E-06,-7.5425,0.46597,-3.46E+07,5.31E+07,0,8.25E-03,0,2.55E+09
70,1,8.86E-06,-1.05E-04,1.62E-06,-1.05E-04,-1.02E-04,-1.02E-04,1.62E-06,-7.5289,0.40875,-6.0706,-5.5435,-7.5289,0.40875,-2.56E+07,1.65E+07,-2.26E+07,1.65E+07,-2.56E+07,1.22E+07,0.00E+00,8.26E-03,3.11E-06,6.76E-03,0,8.26E-03,0.00E+00,2.62E+09,1.05E+06,2.62E+09,0,8.85E+08,-1.05E-04,1.62E-06,-7.5289,0.40875,-2.56E+07,1.65E+07,0,8.26E-03,0,2.62E+09
71,1,8.98E-06,-1.06E-04,1.60E-06,-1.06E-04,-1.03E-04,-1.03E-04,1.60E-06,-7.0616,0.24618,-5.9178,-4.8473,-7.0616,0.24618,-1.87E+08,5.01E+07,-6.20E+07,5.01E+07,-1.87E+08,2.69E+07,0.00E+00,8.26E-03,4.03E-06,7.00E-03,0,8.26E-03,0.00E+00,2.68E+09,1.56E+06,2.68E+09,0,8.85E+08,-1.06E-04,1.60E-06,-7.0616,0.24618,-1.87E+08,5.01E+07,0,8.26E-03,0,2.68E+09
72,1,9.11E-06,-1.07E-04,1.13E-06,-1.07E-04,-1.04E-04,-1.04E-04,1.13E-06,-6.958,0.19468,-5.6239,-4.947,-6.958,0.19468,-7.29E+07,3.05E+07,-3.81E+07,3.05E+07,-7.29E+07,1.91E+07,0.00E+00,8.26E-03,4.08E-06,7.20E-03,0,8.26E-03,0.00E+00,2.72E+09,1.73E+06,2.72E+09,0,8.86E+08,-1.07E-04,1.13E-06,-6.958,0.19468,-7.29E+07,3.05E+07,0,8.26E-03,0,2.72E+09
73,1,9.24E-06,-1.07E-04,6.48E-07,-1.07E-04,-1.04E-04,-1.05E-04,6.48E-07,-5.549,0.2771,-5.3868,-4.6892,-5.549,0.2771,-3.54E+07,4.62E+07,-3.54E+07,4.62E+07,-2.27E+07,1.75E+07,0.00E+00,8.25E-03,4.20E-06,7.39E-03,0,8.25E-03,0.00E+00,2.77E+09,1.61E+06,2.77E+09,0,8.86E+08,-1.07E-04,6.48E-07,-5.549,0.2771,-3.54E+07,4.62E+07,0,8.25E-03,0,2.77E+09
74,1,9.37E-06,-1.08E-04,1.86E-07,-1.08E-04,-1.05E-04,-1.05E-04,1.86E-07,-5.3374,0.39757,-5.1441,-4.6016,-5.3374,0.39757,-1.96E+07,5.61E+07,-1.96E+07,5.61E+07,-8.92E+06,1.23E+07,0.00E+00,8.24E-03,3.58E-06,7.57E-03,0,8.24E-03,0.00E+00,2.80E+09,1.19E+06,2.80E+09,0,8.86E+08,-1.08E-04,1.86E-07,-5.3374,0.39757,-1.96E+07,5.61E+07,0,8.24E-03,0,2.80E+09
75,1,9.50E-06,-1.09E-04,1.75E-07,-1.09E-04,-1.06E-04,-1.06E-04,1.75E-07,-5.1473,0.639,-4.9288,-4.4112,-5.1473,0.639,-1.45E+07,3.13E+07,-1.45E+07,3.13E+07,-8.60E+06,1.01E+07,0.00E+00,8.23E-03,4.14E-06,7.70E-03,0,8.23E-03,0.00E+00,2.82E+09,1.54E+06,2.82E+09,0,8.86E+08,-1.09E-04,1.75E-07,-5.1473,0.639,-1.45E+07,3.13E+07,0,8.23E-03,0,2.82E+09
76,1,9.63E-06,-1.09E-04,1.61E-07,-1.09E-04,-1.06E-04,-1.06E-04,1.61E-07,-4.932,0.44559,-4.6783,-4.1273,-4.932,0.44559,-1.62E+07,1.63E+07,-1.62E+07,1.63E+07,-1.50E+07,9.36E+06,0.00E+00,8.22E-03,4.93E-06,7.88E-03,0,8.22E-03,0.00E+00,2.86E+09,1.91E+06,2.86E+09,0,8.86E+08,-1.09E-04,1.61E-07,-4.932,0.44559,-1.62E+07,1.63E+07,0,8.22E-03,0,2.86E+09
77,1,9.76E-06,-1.10E-04,1.71E-07,-1.10E-04,-1.07E-04,-1.07E-04,1.71E-07,-4.8046,0.32556,-4.4421,-3.8643,-4.8046,0.32556,-1.41E+07,1.47E+07,-1.41E+07,1.47E+07,-1.03E+07,1.44E+07,0.00E+00,8.21E-03,5.41E-06,8.03E-03,0,8.21E-03,0.00E+00,2.89E+09,2.15E+06,2.89E+09,0,8.86E+08,-1.10E-04,1.71E-07,-4.8046,0.32556,-1.41E+07,1.47E+07,0,8.21E-03,0,2.89E+09
78,1,9.88E-06,-1.10E-04,1.99E-07,-1.10E-04,-1.07E-04,-1.08E-04,1.99E-07,-4.5154,0.38672,-4.2138,-3.604,-4.5154,0.38672,-1.84E+07,3.89E+07,-1.84E+07,3.89E+07,-1.06E+07,1.48E+07,0.00E+00,8.21E-03,4.27E-06,8.21E-03,0,8.20E-03,0.00E+00,2.93E+09,1.55E+06,2.93E+09,0,8.86E+08,-1.10E-04,1.99E-07,-4.5154,0.38672,-1.84E+07,3.89E+07,0,8.21E-03,0,2.93E+09
79,1,1.00E-05,-1.11E-04,2.21E-07,-1.11E-04,-1.08E-04,-1.08E-04,2.21E-07,-4.255,0.3035,-3.9779,-3.3342,-4.255,3.04E-01,-2.41E+07,5.96E+07,-2.41E+07,5.96E+07,-1.08E+07,1.04E+07,0.00E+00,8.40E-03,2.27E-06,8.40E-03,0,8.20E-03,0.00E+00,2.98E+09,8.79E+05,2.98E+09,0,8.86E+08,-1.11E-04,2.21E-07,-4.255,3.04E-01,-2.41E+07,5.96E+07,0,8.40E-03,0,2.98E+09
80,1,1.01E-05,-1.11E-04,2.49E-07,-1.11E-04,-1.08E-04,-1.09E-04,2.49E-07,-4.0705,0.3363,-3.7286,-2.9099,-4.0705,0.3363,-2.79E+07,3.36E+07,-2.79E+07,3.36E+07,-2.09E+07,3.23E+07,0.00E+00,8.34E-03,3.53E-06,8.34E-03,0,8.21E-03,0.00E+00,2.95E+09,1.37E+06,2.95E+09,0,8.85E+08,-1.11E-04,2.49E-07,-4.0705,0.3363,-2.79E+07,3.36E+07,0,8.34E-03,0,2.95E+09
81,1,1.03E-05,-1.12E-04,2.90E-07,-1.12E-04,-1.09E-04,-1.09E-04,2.90E-07,-3.5457,0.33329,-3.4895,-2.8153,-3.5457,0.33329,-1.97E+07,2.64E+07,-1.97E+07,2.23E+07,-1.12E+07,2.64E+07,0.00E+00,8.22E-03,4.33E-06,8.22E-03,0,8.21E-03,0.00E+00,2.91E+09,1.68E+06,2.91E+09,0,8.85E+08,-1.12E-04,2.90E-07,-3.5457,0.33329,-1.97E+07,2.64E+07,0,8.22E-03,0,2.91E+09
82,1,1.04E-05,-1.12E-04,2.99E-07,-1.12E-04,-1.09E-04,-1.09E-04,2.99E-07,-3.2334,0.20432,-3.2334,-2.5616,-3.1751,0.20432,-1.40E+07,1.53E+07,-1.40E+07,1.53E+07,-8.06E+06,1.13E+07,0.00E+00,8.21E-03,4.39E-06,8.15E-03,0,8.21E-03,0.00E+00,2.88E+09,1.64E+06,2.88E+09,0,8.85E+08,-1.12E-04,2.99E-07,-3.2334,0.20432,-1.40E+07,1.53E+07,0,8.21E-03,0,2.88E+09
83,1,1.05E-05,-1.13E-04,2.68E-07,-1.13E-04,-1.09E-04,-1.10E-04,2.68E-07,-2.994,0.27443,-2.994,-2.2864,-2.8134,0.27443,-1.12E+07,1.95E+07,-1.12E+07,1.95E+07,-9.18E+06,1.45E+07,0.00E+00,8.21E-03,4.14E-06,8.07E-03,0,8.21E-03,0,2.85E+09,1.53E+06,2.85E+09,0,8.85E+08,-1.13E-04,2.68E-07,-2.994,0.27443,-1.12E+07,1.95E+07,0,8.21E-03,0,2.85E+09
84,1,1.07E-05,-1.13E-04,2.28E-07,-1.13E-04,-1.10E-04,-1.10E-04,2.28E-07,-2.7918,0.28191,-2.7918,-2.006,-2.4179,0.28191,-1.16E+07,1.33E+07,-1.16E+07,1.33E+07,-6.99E+06,9.22E+06,0.00E+00,8.21E-03,4.22E-06,7.99E-03,0,8.21E-03,0,2.82E+09,1.65E+06,2.82E+09,0,8.85E+08,-1.13E-04,2.28E-07,-2.7918,0.28191,-1.16E+07,1.33E+07,0,8.21E-03,0,2.82E+09
85,1,1.08E-05,-1.13E-04,2.10E-07,-1.13E-04,-1.10E-04,-1.10E-04,2.10E-07,-2.5182,0.27801,-2.5182,-1.7198,-2.2874,0.27801,-9.77E+06,1.19E+07,-9.77E+06,1.19E+07,-5.20E+06,8.83E+06,0.00E+00,8.20E-03,4.78E-06,7.91E-03,0,8.20E-03,0.00E+00,2.79E+09,1.79E+06,2.79E+09,0,8.85E+08,-1.13E-04,2.10E-07,-2.5182,0.27801,-9.77E+06,1.19E+07,0,8.20E-03,0,2.79E+09
86,1,1.09E-05,-1.14E-04,1.99E-07,-1.14E-04,-1.10E-04,-1.11E-04,1.99E-07,-2.2935,0.27817,-2.2935,-1.4628,-2.0155,0.27817,-7.80E+06,1.26E+07,-7.80E+06,1.26E+07,-6.65E+06,7.13E+06,0.00E+00,8.19E-03,5.13E-06,7.85E-03,0,8.19E-03,0.00E+00,2.76E+09,2.14E+06,2.76E+09,0,8.85E+08,-1.14E-04,1.99E-07,-2.2935,0.27817,-7.80E+06,1.26E+07,0,8.19E-03,0,2.76E+09
87,1,1.10E-05,-1.14E-04,2.00E-07,-1.14E-04,-1.10E-04,-1.11E-04,2.00E-07,-2.0398,0.55226,-2.0398,-1.1824,-1.7667,0.55226,-6.47E+06,8.06E+06,-5.94E+06,8.06E+06,-6.47E+06,7.46E+06,0.00E+00,8.18E-03,4.24E-06,7.78E-03,0,8.18E-03,0.00E+00,2.74E+09,1.77E+06,2.74E+09,0,8.85E+08,-1.14E-04,2.00E-07,-2.0398,0.55226,-6.47E+06,8.06E+06,0,8.18E-03,0,2.74E+09
88,1,1.12E-05,-1.14E-04,2.03E-07,-1.14E-04,-1.11E-04,-1.11E-04,2.03E-07,-1.8032,0.65737,-1.8032,-0.91804,-1.4899,0.65737,-8.07E+06,1.20E+07,-3.30E+06,1.20E+07,-8.07E+06,5.14E+06,0.00E+00,8.17E-03,3.78E-06,7.73E-03,0,8.17E-03,0,2.72E+09,1.44E+06,2.72E+09,0,8.85E+08,-1.14E-04,2.03E-07,-1.8032,0.65737,-8.07E+06,1.20E+07,0,8.17E-03,0,2.72E+09
89,1,1.13E-05,-1.14E-04,2.14E-07,-1.14E-04,-1.11E-04,-1.11E-04,2.14E-07,-1.5391,0.36492,-1.5391,-0.65462,-1.2089,0.36492,-7.71E+06,8.59E+06,-6.43E+06,8.59E+06,-7.71E+06,5.56E+06,0.00E+00,8.17E-03,3.50E-06,7.70E-03,0,8.17E-03,0,2.70E+09,1.28E+06,2.70E+09,0,8.85E+08,-1.14E-04,2.14E-07,-1.5391,0.36492,-7.71E+06,8.59E+06,0,8.17E-03,0,2.70E+09
90,1,1.14E-05,-1.14E-04,2.16E-07,-1.14E-04,-1.11E-04,-1.11E-04,2.16E-07,-1.3162,0.18651,-1.3162,-0.39815,-0.92633,0.18651,-7.21E+06,1.10E+07,-4.87E+06,1.10E+07,-7.21E+06,8.56E+06,0.00E+00,8.17E-03,4.40E-06,7.69E-03,0,8.17E-03,0,2.70E+09,1.69E+06,2.70E+09,0,8.85E+08,-1.14E-04,2.16E-07,-1.3162,0.18651,-7.21E+06,1.10E+07,0,8.17E-03,0,2.70E+09
91,1,1.16E-05,-1.15E-04,2.01E-07,-1.15E-04,-1.11E-04,-1.11E-04,2.01E-07,-1.0461,0.21726,-1.0461,-0.12024,-0.66542,0.21726,-7.32E+06,8.54E+06,-5.25E+06,8.54E+06,-7.32E+06,6.36E+06,0.00E+00,8.16E-03,4.30E-06,7.68E-03,0,8.16E-03,0,2.69E+09,1.57E+06,2.69E+09,0,8.85E+08,-1.15E-04,2.01E-07,-1.0461,0.21726,-7.32E+06,8.54E+06,0,8.16E-03,0,2.69E+09
92,1,1.17E-05,-1.15E-04,1.91E-07,-1.15E-04,-1.11E-04,-1.11E-04,1.91E-07,-0.81897,0.25153,-0.81897,0.13503,-0.45633,0.25153,-6.52E+06,5.72E+06,-4.16E+06,5.72E+06,-6.52E+06,5.57E+06,0.00E+00,8.14E-03,4.38E-06,7.67E-03,0,8.14E-03,0,2.69E+09,1.63E+06,2.69E+09,0,8.84E+08,-1.15E-04,1.91E-07,-0.81897,0.25153,-6.52E+06,5.72E+06,0,8.14E-03,0,2.69E+09
93,1,1.18E-05,-1.15E-04,2.07E-07,-1.15E-04,-1.11E-04,-1.11E-04,2.07E-07,-0.56164,0.41688,-0.56164,0.41688,-0.41537,0.35968,-4.94E+06,6.43E+06,-2.07E+06,6.43E+06,-4.94E+06,5.55E+06,0.00E+00,8.13E-03,4.41E-06,7.67E-03,0,8.13E-03,0,2.69E+09,1.63E+06,2.69E+09,0,8.85E+08,-1.15E-04,2.07E-07,-0.56164,0.41688,-4.94E+06,6.43E+06,0,8.13E-03,0,2.69E+09
94,1,1.19E-05,-1.15E-04,2.24E-07,-1.15E-04,-1.11E-04,-1.11E-04,2.24E-07,-0.3344,0.70983,-0.3344,0.70983,-0.18249,0.43086,-5.31E+06,6.75E+06,-2.74E+06,6.40E+06,-5.31E+06,6.75E+06,0.00E+00,8.10E-03,5.00E-06,7.65E-03,0,8.10E-03,0,2.68E+09,1.98E+06,2.68E+09,0,8.83E+08,-1.15E-04,2.24E-07,-0.3344,0.70983,-5.31E+06,6.75E+06,0,8.10E-03,0,2.68E+09
95,1,1.21E-05,-1.15E-04,2.55E-07,-1.15E-04,-1.11E-04,-1.11E-04,2.55E-07,-0.19521,0.97567,-8.79E-02,0.97567,-0.19521,0.55392,-3.81E+06,6.66E+06,-1.82E+06,5.18E+06,-3.81E+06,6.66E+06,0.00E+00,8.08E-03,4.47E-06,7.64E-03,0,8.08E-03,0,2.68E+09,1.92E+06,2.68E+09,0,8.81E+08,-1.15E-04,2.55E-07,-0.19521,0.97567,-3.81E+06,6.66E+06,0,8.08E-03,0,2.68E+09
96,1,1.22E-05,-1.15E-04,3.05E-07,-1.15E-04,-1.11E-04,-1.11E-04,3.05E-07,-0.16486,1.2458,1.36E-01,1.2458,-0.16486,0.88817,-5.72E+06,7.04E+06,-1.40E+06,7.04E+06,-5.72E+06,4.87E+06,0.00E+00,8.03E-03,3.14E-06,7.61E-03,0,8.03E-03,0,2.67E+09,1.26E+06,2.67E+09,0,8.76E+08,-1.15E-04,3.05E-07,-0.16486,1.2458,-5.72E+06,7.04E+06,0,8.03E-03,0,2.67E+09
97,1,1.23E-05,-1.15E-04,3.60E-07,-1.15E-04,-1.11E-04,-1.11E-04,3.60E-07,-0.16887,1.5103,0.39272,1.5103,-0.16887,1.1579,-4.46E+06,7.17E+06,-3.92E+06,5.07E+06,-4.46E+06,7.17E+06,0.00E+00,7.94E-03,2.83E-06,7.58E-03,0,7.94E-03,0,2.66E+09,1.19E+06,2.66E+09,0,8.66E+08,-1.15E-04,3.60E-07,-0.16887,1.5103,-4.46E+06,7.17E+06,0,7.94E-03,0,2.66E+09
98,1,1.25E-05,-1.15E-04,4.19E-07,-1.15E-04,-1.11E-04,-1.11E-04,4.19E-07,-0.16338,1.7485,0.64929,1.7485,-0.16338,1.4001,-6.77E+06,5.55E+06,-1.44E+06,5.55E+06,-6.77E+06,4.90E+06,0.00E+00,7.87E-03,3.49E-06,7.53E-03,0,7.87E-03,0,2.64E+09,1.44E+06,2.64E+09,0,8.54E+08,-1.15E-04,4.19E-07,-0.16338,1.7485,-6.77E+06,5.55E+06,0,7.87E-03,0,2.64E+09
99,1,1.26E-05,-1.15E-04,5.04E-07,-1.15E-04,-1.11E-04,-1.11E-04,5.04E-07,-0.19892,2.0071,0.89352,2.0071,-0.19892,1.4957,-4.87E+06,5.60E+06,-1.76E+06,5.56E+06,-4.87E+06,5.60E+06,0.00E+00,7.80E-03,4.09E-06,7.49E-03,0,7.80E-03,0,2.62E+09,1.60E+06,2.62E+09,0,8.39E+08,-1.15E-04,5.04E-07,-0.19892,2.0071,-4.87E+06,5.60E+06,0,7.80E-03,0,2.62E+09
100,1,1.27E-05,-1.14E-04,6.00E-07,-1.14E-04,-1.10E-04,-1.11E-04,6.00E-07,-1.64E-01,2.2674,1.123,2.2674,-0.16441,1.4914,-4.48E+06,5.62E+06,-1.67E+06,5.60E+06,-4.48E+06,5.62E+06,0.00E+00,7.73E-03,4.67E-06,7.44E-03,0,7.73E-03,0,2.60E+09,1.77E+06,2.60E+09,0,8.27E+08,-1.14E-04,6.00E-07,-0.16441,2.2674,-4.48E+06,5.62E+06,0,7.73E-03,0,2.60E+09
101,1,1.28E-05,-1.14E-04,7.28E-07,-1.14E-04,-1.10E-04,-1.11E-04,7.28E-07,-1.72E-01,2.5198,1.3179,2.5198,-0.17244,1.6657,-5.92E+06,5.31E+06,-1.23E+06,4.79E+06,-5.92E+06,5.31E+06,0.00E+00,7.64E-03,3.84E-06,7.40E-03,0,7.64E-03,0,2.58E+09,1.35E+06,2.58E+09,0,8.18E+08,-1.14E-04,7.28E-07,-0.17244,2.5198,-5.92E+06,5.31E+06,0,7.64E-03,0,2.58E+09
102,1,1.30E-05,-1.14E-04,8.73E-07,-1.14E-04,-1.10E-04,-1.10E-04,8.73E-07,-1.82E-01,2.7793,1.5508,2.7793,-0.18224,1.8919,-3.73E+06,5.18E+06,-1.63E+06,4.74E+06,-3.73E+06,5.18E+06,0.00E+00,7.56E-03,3.65E-06,7.37E-03,0,7.56E-03,0,2.56E+09,1.50E+06,2.56E+09,0,8.11E+08,-1.14E-04,8.73E-07,-0.18224,2.7793,-3.73E+06,5.18E+06,0,7.56E-03,0,2.56E+09
103,1,1.31E-05,-1.14E-04,1.04E-06,-1.14E-04,-1.10E-04,-1.10E-04,1.04E-06,-1.80E-01,3.0095,1.777,3.0095,-0.17973,2.103,-4.86E+06,8.75E+06,-7.00E+05,4.79E+06,-4.86E+06,8.75E+06,0.00E+00,7.43E-03,3.50E-06,7.29E-03,0,7.43E-03,0,2.53E+09,1.51E+06,2.53E+09,0,7.96E+08,-1.14E-04,1.04E-06,-0.17973,3.0095,-4.86E+06,8.75E+06,0,7.43E-03,0,2.53E+09
104,1,1.32E-05,-1.14E-04,1.20E-06,-1.14E-04,-1.10E-04,-1.10E-04,1.20E-06,-0.17414,3.1986,1.9825,3.1986,-0.17414,2.2801,-4.58E+06,5.35E+06,-4.71E+05,3.53E+06,-4.58E+06,5.35E+06,0.00E+00,7.32E-03,3.41E-06,7.19E-03,0,7.32E-03,0,2.48E+09,1.48E+06,2.48E+09,0,7.84E+08,-1.14E-04,1.20E-06,-0.17414,3.1986,-4.58E+06,5.35E+06,0,7.32E-03,0,2.48E+09
105,1,1.34E-05,-1.13E-04,1.38E-06,-1.13E-04,-1.09E-04,-1.10E-04,1.38E-06,-0.1483,3.4068,2.1764,3.4068,-0.1483,2.4422,-4.65E+06,5.97E+06,-9.20E+05,4.37E+06,-4.65E+06,5.97E+06,0.00E+00,7.22E-03,3.26E-06,7.07E-03,0,7.22E-03,0,2.43E+09,1.21E+06,2.43E+09,0,7.73E+08,-1.13E-04,1.38E-06,-0.1483,3.4068,-4.65E+06,5.97E+06,0,7.22E-03,0,2.43E+09
106,1,1.35E-05,-1.13E-04,1.57E-06,-1.13E-04,-1.09E-04,-1.09E-04,1.57E-06,-0.14961,3.6232,2.3685,3.6232,-0.14961,2.6146,-5.20E+06,5.75E+06,-6.13E+05,4.16E+06,-5.20E+06,5.75E+06,0.00E+00,7.09E-03,2.54E-06,6.92E-03,0,7.09E-03,0,2.37E+09,9.61E+05,2.37E+09,0,7.59E+08,-1.13E-04,1.57E-06,-0.14961,3.6232,-5.20E+06,5.75E+06,0,7.09E-03,0,2.37E+09
107,1,1.36E-05,-1.13E-04,1.77E-06,-1.13E-04,-1.08E-04,-1.09E-04,1.77E-06,-0.16347,3.8388,2.5146,3.8388,-0.16347,2.8013,-4.67E+06,5.74E+06,-4.32E+06,5.74E+06,-4.67E+06,5.45E+06,0.00E+00,6.99E-03,2.07E-06,6.76E-03,0,6.99E-03,0,2.31E+09,8.42E+05,2.31E+09,0,7.44E+08,-1.13E-04,1.77E-06,-0.16347,3.8388,-4.67E+06,5.74E+06,0,6.99E-03,0,2.31E+09
108,1,1.37E-05,-1.12E-04,1.97E-06,-1.12E-04,-1.08E-04,-1.09E-04,1.97E-06,-0.14459,4.0169,2.6356,4.0169,-0.14459,2.9429,-3.02E+07,1.47E+07,-9.74E+06,1.47E+07,-3.02E+07,1.05E+07,0.00E+00,6.90E-03,3.35E-06,6.53E-03,0,6.90E-03,0.00E+00,2.22E+09,1.33E+06,2.22E+09,0,7.28E+08,-1.12E-04,1.97E-06,-0.14459,4.0169,-3.02E+07,1.47E+07,0,6.90E-03,0,2.22E+09
109,1,1.39E-05,-1.12E-04,2.18E-06,-1.12E-04,-1.07E-04,-1.08E-04,2.18E-06,-0.148,4.1741,2.7539,4.1741,-0.148,3.1169,-6.05E+06,1.20E+07,-4.04E+06,1.20E+07,-6.05E+06,1.18E+07,0.00E+00,6.80E-03,3.46E-06,6.19E-03,0,6.80E-03,0.00E+00,2.10E+09,1.46E+06,2.10E+09,0,7.15E+08,-1.12E-04,2.18E-06,-0.148,4.1741,-6.05E+06,1.20E+07,0,6.80E-03,0,2.10E+09
110,1,1.40E-05,-1.12E-04,2.39E-06,-1.12E-04,-1.07E-04,-1.08E-04,2.39E-06,-0.14707,4.3395,2.8767,4.3395,-0.14707,3.254,-1.42E+07,1.78E+07,-5.80E+06,6.99E+06,-1.42E+07,1.78E+07,0.00E+00,6.70E-03,2.61E-06,5.83E-03,0,6.70E-03,0.00E+00,1.97E+09,9.91E+05,1.97E+09,0,7.03E+08,-1.12E-04,2.39E-06,-0.14707,4.3395,-1.42E+07,1.78E+07,0,6.70E-03,0,1.97E+09
111,1,1.41E-05,-1.11E-04,2.62E-06,-1.11E-04,-1.06E-04,-1.08E-04,2.62E-06,-0.11233,4.5128,3.0399,4.5128,-0.11233,3.4355,-3.48E+07,1.57E+07,-3.48E+07,9.15E+06,-3.26E+07,1.57E+07,0.00E+00,6.56E-03,2.01E-06,5.48E-03,0,6.56E-03,0.00E+00,1.84E+09,7.32E+05,1.84E+09,0,6.85E+08,-1.11E-04,2.62E-06,-0.11233,4.5128,-3.48E+07,1.57E+07,0,6.56E-03,0,1.84E+09
112,1,1.42E-05,-1.11E-04,2.86E-06,-1.11E-04,-1.06E-04,-1.07E-04,2.86E-06,-0.17804,4.6348,3.1511,4.6348,-0.17804,3.5794,-1.17E+07,1.72E+07,-6.65E+06,1.72E+07,-1.17E+07,1.12E+07,0.00E+00,6.46E-03,9.87E-07,5.14E-03,0,6.46E-03,0.00E+00,1.71E+09,3.26E+05,1.71E+09,0,6.74E+08,-1.11E-04,2.86E-06,-0.17804,4.6348,-1.17E+07,1.72E+07,0,6.46E-03,0,1.71E+09
113,1,1.44E-05,-1.10E-04,3.11E-06,-1.10E-04,-1.05E-04,-1.07E-04,3.11E-06,-0.14093,4.7328,3.2519,4.7328,-0.14093,3.6481,-8.90E+06,8.19E+06,-4.78E+06,5.41E+06,-8.90E+06,8.19E+06,0.00E+00,6.39E-03,1.81E-06,4.79E-03,0,6.39E-03,0.00E+00,1.58E+09,7.55E+05,1.58E+09,0,6.63E+08,-1.10E-04,3.11E-06,-0.14093,4.7328,-8.90E+06,8.19E+06,0,6.39E-03,0,1.58E+09
114,1,1.45E-05,-1.10E-04,3.35E-06,-1.10E-04,-1.04E-04,-1.06E-04,3.35E-06,-0.14575,4.8371,3.3501,4.8371,-0.14575,3.7044,-4.33E+07,1.47E+07,-5.12E+06,1.47E+07,-4.33E+07,8.41E+06,0.00E+00,6.30E-03,1.12E-06,4.42E-03,0,6.30E-03,0.00E+00,1.45E+09,3.84E+05,1.45E+09,0,6.51E+08,-1.10E-04,3.35E-06,-0.14575,4.8371,-4.33E+07,1.47E+07,0,6.30E-03,0,1.45E+09
115,1,1.46E-05,-1.09E-04,3.62E-06,-1.09E-04,-1.04E-04,-1.06E-04,3.62E-06,-0.1424,4.9305,3.4181,4.9305,-0.1424,3.9696,-2.48E+07,1.58E+07,-1.88E+07,5.05E+06,-2.48E+07,1.58E+07,0.00E+00,6.20E-03,1.23E-06,4.05E-03,0,6.20E-03,0.00E+00,1.31E+09,4.63E+05,1.31E+09,0,6.39E+08,-1.09E-04,3.62E-06,-0.1424,4.9305,-2.48E+07,1.58E+07,0,6.20E-03,0,1.31E+09
116,1,1.48E-05,-1.09E-04,3.86E-06,-1.09E-04,-1.03E-04,-1.05E-04,3.86E-06,-0.13897,5.0269,3.4413,5.0269,-0.13897,4.0698,-1.10E+07,1.29E+07,-4.62E+06,1.29E+07,-1.10E+07,7.85E+06,0.00E+00,6.10E-03,1.12E-06,3.66E-03,0,6.10E-03,0.00E+00,1.17E+09,4.66E+05,1.17E+09,0,6.25E+08,-1.09E-04,3.86E-06,-0.13897,5.0269,-1.10E+07,1.29E+07,0,6.10E-03,0,1.17E+09
117,1,1.49E-05,-1.08E-04,4.11E-06,-1.08E-04,-1.02E-04,-1.05E-04,4.11E-06,-0.14875,5.1109,3.516,5.1109,-0.14875,4.1775,-2.35E+07,2.27E+07,-6.81E+06,2.27E+07,-2.35E+07,1.41E+07,0.00E+00,6.02E-03,7.14E-07,3.25E-03,0,6.02E-03,0.00E+00,1.06E+09,3.13E+05,1.06E+09,0,6.13E+08,-1.08E-04,4.11E-06,-0.14875,5.1109,-2.35E+07,2.27E+07,0,6.02E-03,0,1.06E+09
118,1,1.50E-05,-1.08E-04,4.35E-06,-1.08E-04,-1.02E-04,-1.04E-04,4.35E-06,-0.16872,5.1779,3.5012,5.1779,-0.16872,4.3282,-1.13E+07,1.28E+07,-9.04E+06,7.68E+06,-1.13E+07,1.28E+07,0.00E+00,5.88E-03,6.27E-07,2.97E-03,0,5.88E-03,0.00E+00,9.64E+08,2.63E+05,9.64E+08,0,5.96E+08,-1.08E-04,4.35E-06,-0.16872,5.1779,-1.13E+07,1.28E+07,0,5.88E-03,0,9.64E+08
119,1,1.51E-05,-1.08E-04,4.59E-06,-1.08E-04,-1.01E-04,-1.04E-04,4.59E-06,-0.15358,5.2275,3.5074,5.2275,-0.15358,4.0045,-5.61E+07,5.90E+07,-9.38E+06,5.90E+07,-5.61E+07,2.32E+07,0.00E+00,5.71E-03,2.96E-07,2.68E-03,0,5.71E-03,0.00E+00,8.69E+08,1.10E+05,8.69E+08,0,5.74E+08,-1.08E-04,4.59E-06,-0.15358,5.2275,-5.61E+07,5.90E+07,0,5.71E-03,0,8.69E+08
120,1,1.53E-05,-1.07E-04,4.79E-06,-1.07E-04,-1.00E-04,-1.03E-04,4.79E-06,-0.13702,5.2529,3.6504,5.2529,-0.13702,3.9822,-3.26E+07,8.64E+07,-2.52E+07,8.64E+07,-3.26E+07,2.54E+07,0.00E+00,5.60E-03,2.29E-07,2.20E-03,0,5.60E-03,0.00E+00,6.99E+08,6.71E+04,6.99E+08,0,5.57E+08,-1.07E-04,4.79E-06,-0.13702,5.2529,-3.26E+07,8.64E+07,0,5.60E-03,0,6.99E+08
121,1,1.54E-05,-1.06E-04,5.00E-06,-1.06E-04,-9.97E-05,-1.03E-04,5.00E-06,-0.15226,5.2464,3.4926,5.2464,-0.15226,4.1199,-6.88E+07,2.76E+07,-6.88E+07,2.49E+07,-3.34E+07,2.76E+07,0.00E+00,5.46E-03,1.40E-07,1.66E-03,0,5.46E-03,0.00E+00,5.42E+08,5.04E+04,5.15E+08,0,5.42E+08,-1.06E-04,5.00E-06,-0.15226,5.2464,-6.88E+07,2.76E+07,0,5.46E-03,0,5.42E+08
122,1,1.55E-05,-1.06E-04,5.15E-06,-1.06E-04,-9.91E-05,-1.02E-04,5.15E-06,-0.14954,5.2621,3.7315,5.2621,-0.14954,4.0006,-4.13E+07,6.04E+07,-1.45E+07,6.04E+07,-4.13E+07,2.39E+07,0.00E+00,5.36E-03,1.87E-07,1.37E-03,0,5.36E-03,0.00E+00,5.28E+08,5.49E+04,3.45E+08,0,5.28E+08,-1.06E-04,5.15E-06,-0.14954,5.2621,-4.13E+07,6.04E+07,0,5.36E-03,0,5.28E+08
123,1,1.57E-05,-1.05E-04,5.28E-06,-1.05E-04,-9.84E-05,-1.02E-04,5.28E-06,-0.17686,5.2799,3.6534,5.2799,-0.17686,4.6584,-3.74E+07,3.37E+07,-3.74E+07,3.37E+07,-3.69E+07,2.65E+07,0.00E+00,5.37E-03,1.13E-07,1.31E-03,0,5.37E-03,0.00E+00,5.20E+08,2.91E+04,2.10E+08,0,5.20E+08,-1.05E-04,5.28E-06,-0.17686,5.2799,-3.74E+07,3.37E+07,0,5.37E-03,0,5.20E+08
124,1,1.58E-05,-1.05E-04,5.37E-06,-1.05E-04,-9.77E-05,-1.01E-04,5.37E-06,-0.26294,5.2987,3.5971,5.2987,-0.26294,4.78,-6.59E+07,3.47E+07,-6.59E+07,3.47E+07,-6.03E+07,1.96E+07,0.00E+00,5.40E-03,1.22E-07,1.31E-03,0,5.40E-03,0.00E+00,5.20E+08,2.88E+04,2.04E+08,0,5.20E+08,-1.05E-04,5.37E-06,-0.26294,5.2987,-6.59E+07,3.47E+07,0,5.40E-03,0,5.20E+08
125,1,1.59E-05,-1.04E-04,5.42E-06,-1.04E-04,-9.70E-05,-1.01E-04,5.42E-06,-0.91247,5.2975,3.9937,5.2975,-0.91247,0.80131,-1.37E+08,2.98E+07,-4.26E+07,2.98E+07,-1.37E+08,2.09E+07,0.00E+00,5.37E-03,1.15E-07,1.31E-03,0,5.37E-03,0.00E+00,5.16E+08,1.58E+04,2.01E+08,0,5.16E+08,-1.04E-04,5.42E-06,-0.91247,5.2975,-1.37E+08,2.98E+07,0,5.37E-03,0,5.16E+08
126,1,1.60E-05,-1.04E-04,5.44E-06,-1.04E-04,-9.64E-05,-1.01E-04,5.44E-06,-0.80386,5.2798,4.0096,5.28E+00,-0.80386,0.41003,-6.95E+07,2.78E+07,-1.67E+07,2.78E+07,-6.95E+07,2.08E+07,0.00E+00,5.36E-03,8.57E-08,1.31E-03,0,5.36E-03,0.00E+00,5.19E+08,1.90E+04,2.02E+08,0,5.19E+08,-1.04E-04,5.44E-06,-0.80386,5.2798,-6.95E+07,2.78E+07,0,5.36E-03,0,5.19E+08
127,1,1.62E-05,-1.03E-04,5.42E-06,-1.03E-04,-9.57E-05,-1.01E-04,5.42E-06,-0.96071,5.2858,3.9883,5.2858,-0.96071,0.20813,-2.70E+07,4.27E+07,-2.28E+07,2.47E+07,-2.70E+07,4.27E+07,0.00E+00,5.33E-03,1.51E-07,1.31E-03,0,5.33E-03,0.00E+00,5.23E+08,3.16E+04,2.01E+08,0,5.23E+08,-1.03E-04,5.42E-06,-0.96071,5.2858,-2.70E+07,4.27E+07,0,5.33E-03,0,5.23E+08
128,1,1.63E-05,-1.03E-04,5.38E-06,-1.03E-04,-9.50E-05,-1.01E-04,5.38E-06,-0.88689,5.2865,4.0112,5.2865,-0.88689,0.18089,-2.26E+07,2.30E+07,-1.91E+07,2.30E+07,-2.26E+07,2.30E+07,0.00E+00,5.40E-03,2.33E-07,1.31E-03,0,5.40E-03,0.00E+00,5.28E+08,7.20E+04,2.01E+08,0,5.28E+08,-1.03E-04,5.38E-06,-0.88689,5.2865,-2.26E+07,2.30E+07,0,5.40E-03,0,5.28E+08
129,1,1.64E-05,-1.02E-04,5.36E-06,-1.02E-04,-9.43E-05,-1.01E-04,5.36E-06,-0.65204,5.3006,3.9784,5.3006,-0.65204,0.34225,-2.46E+07,2.00E+07,-1.44E+07,1.35E+07,-2.46E+07,2.00E+07,0.00E+00,5.38E-03,1.22E-07,1.31E-03,0,5.38E-03,0,5.28E+08,4.05E+04,2.01E+08,0,5.28E+08,-1.02E-04,5.36E-06,-0.65204,5.3006,-2.46E+07,2.00E+07,0,5.38E-03,0,5.28E+08
130,1,1.66E-05,-1.02E-04,5.36E-06,-1.02E-04,-9.37E-05,-1.01E-04,5.36E-06,-0.20382,5.2709,3.9649,5.2709,-0.20382,0.64733,-1.54E+07,3.61E+07,-1.15E+07,1.35E+07,-1.54E+07,3.61E+07,0.00E+00,5.37E-03,2.04E-07,1.31E-03,0,5.37E-03,0.00E+00,5.29E+08,4.73E+04,2.01E+08,0,5.29E+08,-1.02E-04,5.36E-06,-0.20382,5.2709,-1.54E+07,3.61E+07,0,5.37E-03,0,5.29E+08
131,1,1.67E-05,-1.01E-04,5.37E-06,-1.01E-04,-9.30E-05,-1.01E-04,5.37E-06,-0.29876,5.248,3.9604,5.248,-0.29876,0.94253,-2.13E+07,2.13E+07,-1.33E+07,1.04E+07,-2.13E+07,2.13E+07,0.00E+00,5.35E-03,1.70E-07,1.31E-03,0,5.35E-03,0.00E+00,5.23E+08,6.43E+04,2.02E+08,0,5.23E+08,-1.01E-04,5.37E-06,-0.29876,5.248,-2.13E+07,2.13E+07,0,5.35E-03,0,5.23E+08
132,1,1.68E-05,-1.01E-04,5.39E-06,-1.01E-04,-9.23E-05,-1.01E-04,5.39E-06,-0.26651,5.2675,3.9785,5.2675,-0.26651,0.63749,-2.02E+07,1.07E+07,-1.34E+07,9.74E+06,-2.02E+07,1.07E+07,0.00E+00,5.34E-03,1.52E-07,1.31E-03,0,5.34E-03,0.00E+00,5.16E+08,4.93E+04,2.02E+08,0,5.16E+08,-1.01E-04,5.39E-06,-0.26651,5.2675,-2.02E+07,1.07E+07,0,5.34E-03,0,5.16E+08
133,1,1.69E-05,-1.01E-04,5.42E-06,-1.00E-04,-9.16E-05,-1.01E-04,5.42E-06,-0.44674,5.3063,3.9841,5.3063,-0.44674,0.37332,-1.75E+07,1.35E+07,-7.58E+06,9.62E+06,-1.75E+07,1.35E+07,0.00E+00,5.35E-03,2.34E-07,1.31E-03,0,5.35E-03,0.00E+00,5.14E+08,5.76E+04,2.02E+08,0,5.14E+08,-1.01E-04,5.42E-06,-0.44674,5.3063,-1.75E+07,1.35E+07,0,5.35E-03,0,5.14E+08
134,1,1.71E-05,-1.01E-04,5.38E-06,-9.98E-05,-9.10E-05,-1.01E-04,5.38E-06,-0.64113,5.3071,4.0105,5.3071,-0.64113,0.20364,-1.71E+07,1.22E+07,-9.91E+06,8.24E+06,-1.71E+07,1.22E+07,0.00E+00,5.36E-03,2.29E-07,1.31E-03,0,5.36E-03,0,5.15E+08,8.97E+04,2.02E+08,0,5.15E+08,-1.01E-04,5.38E-06,-0.64113,5.3071,-1.71E+07,1.22E+07,0,5.36E-03,0,5.15E+08
135,1,1.72E-05,-1.01E-04,5.34E-06,-9.93E-05,-9.03E-05,-1.01E-04,5.34E-06,-0.65499,5.2986,3.9929,5.2986,-0.65499,0.16681,-1.29E+07,1.70E+07,-7.71E+06,8.86E+06,-1.29E+07,1.70E+07,0.00E+00,5.38E-03,2.05E-07,1.31E-03,0,5.38E-03,0.00E+00,5.18E+08,8.44E+04,2.01E+08,0,5.18E+08,-1.01E-04,5.34E-06,-0.65499,5.2986,-1.29E+07,1.70E+07,0,5.38E-03,0,5.18E+08
136,1,1.73E-05,-1.01E-04,5.33E-06,-9.88E-05,-8.96E-05,-1.01E-04,5.33E-06,-0.49381,5.282,3.9911,5.282,-0.49381,0.20173,-1.27E+07,1.94E+07,-6.25E+06,1.25E+07,-1.27E+07,1.94E+07,0.00E+00,5.37E-03,1.33E-07,1.31E-03,0,5.37E-03,0,5.17E+08,3.75E+04,2.01E+08,0,5.17E+08,-1.01E-04,5.33E-06,-0.49381,5.282,-1.27E+07,1.94E+07,0,5.37E-03,0,5.17E+08
137,1,1.75E-05,-1.01E-04,5.32E-06,-9.83E-05,-8.89E-05,-1.01E-04,5.32E-06,-0.24411,5.2692,4.0021,5.2692,-0.24411,0.43117,-1.43E+07,1.26E+07,-4.73E+06,7.35E+06,-1.43E+07,1.26E+07,0.00E+00,5.39E-03,1.43E-07,1.31E-03,0,5.39E-03,0,5.19E+08,4.73E+04,2.01E+08,0,5.19E+08,-1.01E-04,5.32E-06,-0.24411,5.2692,-1.43E+07,1.26E+07,0,5.39E-03,0,5.19E+08
138,1,1.76E-05,-1.01E-04,5.36E-06,-9.78E-05,-8.82E-05,-1.01E-04,5.36E-06,-0.17398,5.2659,3.9658,5.2659,-0.17398,0.64583,-1.17E+07,1.84E+07,-7.25E+06,5.93E+06,-1.17E+07,1.84E+07,0.00E+00,5.36E-03,1.51E-07,1.31E-03,0,5.36E-03,0,5.21E+08,4.72E+04,2.01E+08,0,5.21E+08,-1.01E-04,5.36E-06,-0.17398,5.2659,-1.17E+07,1.84E+07,0,5.36E-03,0,5.21E+08
139,1,1.77E-05,-1.01E-04,5.41E-06,-9.72E-05,-8.76E-05,-1.01E-04,5.41E-06,-0.1532,5.2709,3.9675,5.2709,-0.1532,0.55232,-1.08E+07,1.10E+07,-5.61E+06,3.03E+06,-1.08E+07,1.10E+07,0.00E+00,5.37E-03,1.64E-07,1.31E-03,0,5.37E-03,0.00E+00,5.22E+08,4.57E+04,2.02E+08,0,5.22E+08,-1.01E-04,5.41E-06,-0.1532,5.2709,-1.08E+07,1.10E+07,0,5.37E-03,0,5.22E+08
140,1,1.78E-05,-1.01E-04,5.45E-06,-9.67E-05,-8.69E-05,-1.01E-04,5.45E-06,-0.36361,5.2718,3.9633,5.2718,-0.36361,0.49134,-1.36E+07,7.11E+06,-4.76E+06,5.15E+06,-1.36E+07,7.11E+06,0.00E+00,5.34E-03,2.71E-07,1.31E-03,0,5.34E-03,0.00E+00,5.21E+08,1.11E+05,2.02E+08,0,5.21E+08,-1.01E-04,5.45E-06,-0.36361,5.2718,-1.36E+07,7.11E+06,0,5.34E-03,0,5.21E+08
141,1,1.80E-05,-1.01E-04,5.45E-06,-9.62E-05,-8.62E-05,-1.01E-04,5.45E-06,-0.57031,5.2838,3.9767,5.2838,-0.57031,0.34421,-1.72E+07,6.81E+06,-7.24E+06,4.63E+06,-1.72E+07,6.81E+06,0.00E+00,5.35E-03,1.87E-07,1.31E-03,0,5.35E-03,0.00E+00,5.26E+08,5.51E+04,2.02E+08,0,5.26E+08,-1.01E-04,5.45E-06,-0.57031,5.2838,-1.72E+07,6.81E+06,0,5.35E-03,0,5.26E+08
142,1,1.81E-05,-1.01E-04,5.41E-06,-9.57E-05,-8.55E-05,-1.01E-04,5.41E-06,-0.61645,5.2965,4.0243,5.30E+00,-0.61645,2.00E-01,-1.74E+07,7.60E+06,-2.71E+06,7.60E+06,-1.74E+07,7.00E+06,0.00E+00,5.37E-03,6.73E-08,1.31E-03,0,5.37E-03,0,5.28E+08,2.18E+04,2.02E+08,0,5.28E+08,-1.01E-04,5.41E-06,-0.61645,5.2965,-1.74E+07,7.60E+06,0,5.37E-03,0,5.28E+08
143,1,1.82E-05,-1.01E-04,5.37E-06,-9.52E-05,-8.49E-05,-1.01E-04,5.37E-06,-0.57313,5.3043,4.0006,5.3043,-0.57313,0.16405,-7.65E+06,1.11E+07,-5.28E+06,3.81E+06,-7.65E+06,1.11E+07,0.00E+00,5.36E-03,1.95E-07,1.31E-03,0,5.36E-03,0,5.27E+08,4.94E+04,2.01E+08,0,5.27E+08,-1.01E-04,5.37E-06,-0.57313,5.3043,-7.65E+06,1.11E+07,0,5.36E-03,0,5.27E+08
144,1,1.84E-05,-1.01E-04,5.33E-06,-9.47E-05,-8.42E-05,-1.01E-04,5.33E-06,-0.62721,5.2952,4.0018,5.2952,-0.62721,0.43969,-8.35E+06,9.90E+06,-2.83E+06,3.40E+06,-8.35E+06,9.90E+06,0.00E+00,5.35E-03,1.87E-07,1.31E-03,0,5.35E-03,0,5.22E+08,3.62E+04,2.01E+08,0,5.22E+08,-1.01E-04,5.33E-06,-0.62721,5.2952,-8.35E+06,9.90E+06,0,5.35E-03,0,5.22E+08
145,1,1.85E-05,-1.01E-04,5.32E-06,-9.42E-05,-8.35E-05,-1.01E-04,5.32E-06,-0.43923,5.2763,3.9872,5.2763,-0.43923,0.79139,-7.47E+06,9.36E+06,-3.51E+06,2.89E+06,-7.47E+06,9.36E+06,0.00E+00,5.34E-03,2.49E-07,1.31E-03,0,5.34E-03,0,5.16E+08,7.77E+04,2.01E+08,0,5.16E+08,-1.01E-04,5.32E-06,-0.43923,5.2763,-7.47E+06,9.36E+06,0,5.34E-03,0,5.16E+08
146,1,1.86E-05,-1.01E-04,5.32E-06,-9.36E-05,-8.28E-05,-1.01E-04,5.32E-06,-0.15743,5.2749,3.969,5.2749,-0.15743,0.67308,-7.35E+06,8.66E+06,-2.24E+06,2.38E+06,-7.35E+06,8.66E+06,0.00E+00,5.39E-03,2.37E-07,1.31E-03,0,5.39E-03,0,5.18E+08,9.56E+04,2.01E+08,0,5.18E+08,-1.01E-04,5.32E-06,-0.15743,5.2749,-7.35E+06,8.66E+06,0,5.39E-03,0,5.18E+08
147,1,1.87E-05,-1.01E-04,5.35E-06,-9.31E-05,-8.22E-05,-1.01E-04,5.35E-06,-0.22449,5.2539,3.9763,5.2539,-0.22449,0.58747,-1.26E+07,7.47E+06,-2.04E+06,2.56E+06,-1.26E+07,7.47E+06,0.00E+00,5.39E-03,1.62E-07,1.31E-03,0,5.39E-03,0,5.18E+08,5.21E+04,2.02E+08,0,5.18E+08,-1.01E-04,5.35E-06,-0.22449,5.2539,-1.26E+07,7.47E+06,0,5.39E-03,0,5.18E+08
148,1,1.89E-05,-1.01E-04,5.40E-06,-9.26E-05,-8.15E-05,-1.01E-04,5.40E-06,-0.45166,5.2695,3.9757,5.2695,-0.45166,0.49222,-1.85E+07,8.83E+06,-3.36E+06,2.19E+06,-1.85E+07,8.83E+06,0.00E+00,5.38E-03,1.19E-07,1.31E-03,0,5.38E-03,0,5.18E+08,3.37E+04,2.02E+08,0,5.18E+08,-1.01E-04,5.40E-06,-0.45166,5.2695,-1.85E+07,8.83E+06,0,5.38E-03,0,5.18E+08
149,1,1.90E-05,-1.01E-04,5.41E-06,-9.21E-05,-8.08E-05,-1.01E-04,5.41E-06,-0.81632,5.2796,3.9808,5.2796,-0.81632,0.24046,-1.18E+07,7.44E+06,-2.07E+06,3.43E+06,-1.18E+07,7.44E+06,0.00E+00,5.38E-03,2.07E-07,1.31E-03,0,5.38E-03,0,5.16E+08,8.23E+04,2.02E+08,0,5.16E+08,-1.01E-04,5.41E-06,-0.81632,5.2796,-1.18E+07,7.44E+06,0,5.38E-03,0,5.16E+08
150,1,1.91E-05,-1.01E-04,5.39E-06,-9.16E-05,-8.01E-05,-1.01E-04,5.39E-06,-0.72765,5.2867,3.9997,5.2867,-0.72765,0.30141,-8.25E+06,8.35E+06,-2.31E+06,3.33E+06,-8.25E+06,8.35E+06,0.00E+00,5.37E-03,1.48E-07,1.31E-03,0,5.37E-03,0.00E+00,5.27E+08,2.79E+04,2.02E+08,0,5.27E+08,-1.01E-04,5.39E-06,-0.72765,5.2867,-8.25E+06,8.35E+06,0,5.37E-03,0,5.27E+08
151,1,1.93E-05,-1.01E-04,5.37E-06,-9.11E-05,-7.94E-05,-1.01E-04,5.37E-06,-0.62599,5.3117,3.9967,5.3117,-0.62599,0.29445,-5.89E+06,7.96E+06,-1.19E+06,2.48E+06,-5.89E+06,7.96E+06,0.00E+00,5.40E-03,1.33E-07,1.31E-03,0,5.40E-03,0,5.30E+08,3.36E+04,2.01E+08,0,5.30E+08,-1.01E-04,5.37E-06,-0.62599,5.3117,-5.89E+06,7.96E+06,0,5.40E-03,0,5.30E+08
152,1,1.94E-05,-1.01E-04,5.38E-06,-9.06E-05,-7.88E-05,-1.01E-04,5.38E-06,-0.40736,5.2954,4.0065,5.2954,-0.40736,0.44971,-6.81E+06,8.42E+06,-1.56E+06,1.40E+06,-6.81E+06,8.42E+06,0.00E+00,5.39E-03,1.81E-07,1.31E-03,0,5.39E-03,0,5.30E+08,4.38E+04,2.01E+08,0,5.30E+08,-1.01E-04,5.38E-06,-0.40736,5.2954,-6.81E+06,8.42E+06,0,5.39E-03,0,5.30E+08
153,1,1.95E-05,-1.01E-04,5.39E-06,-9.01E-05,-7.81E-05,-1.01E-04,5.39E-06,-0.15976,5.2762,3.9865,5.2762,-0.15976,0.70958,-7.09E+06,7.79E+06,-1.62E+06,1.08E+06,-7.09E+06,7.79E+06,0.00E+00,5.37E-03,3.06E-07,1.31E-03,0,5.37E-03,0,5.29E+08,5.94E+04,2.01E+08,0,5.29E+08,-1.01E-04,5.39E-06,-0.15976,5.2762,-7.09E+06,7.79E+06,0,5.37E-03,0,5.29E+08
154,1,1.96E-05,-1.01E-04,5.41E-06,-8.95E-05,-7.74E-05,-1.01E-04,5.41E-06,-0.20952,5.2765,3.9885,5.2765,-0.20952,0.73574,-8.94E+06,8.55E+06,-1.15E+06,2.16E+06,-8.94E+06,8.55E+06,0.00E+00,5.35E-03,1.28E-07,1.31E-03,0,5.35E-03,0,5.26E+08,1.86E+04,2.01E+08,0,5.26E+08,-1.01E-04,5.41E-06,-0.20952,5.2765,-8.94E+06,8.55E+06,0,5.35E-03,0,5.26E+08
155,1,1.98E-05,-1.01E-04,5.42E-06,-8.90E-05,-7.67E-05,-1.01E-04,5.42E-06,-0.32269,5.2622,3.9769,5.2622,-0.32269,0.64418,-1.18E+07,6.81E+06,-2.78E+06,1.24E+06,-1.18E+07,6.81E+06,0.00E+00,5.33E-03,7.96E-08,1.31E-03,0,5.33E-03,0,5.18E+08,2.99E+04,2.01E+08,0,5.18E+08,-1.01E-04,5.42E-06,-0.32269,5.2622,-1.18E+07,6.81E+06,0,5.33E-03,0,5.18E+08
156,1,1.99E-05,-1.01E-04,5.40E-06,-8.85E-05,-7.61E-05,-1.01E-04,5.40E-06,-5.48E-01,5.2731,3.9757,5.2731,-0.54787,0.29771,-9.10E+06,4.53E+06,-1.16E+06,2.88E+06,-9.10E+06,4.53E+06,0.00E+00,5.35E-03,1.17E-07,1.31E-03,0,5.35E-03,0,5.14E+08,3.94E+04,2.02E+08,0,5.14E+08,-1.01E-04,5.40E-06,-0.54787,5.2731,-9.10E+06,4.53E+06,0,5.35E-03,0,5.14E+08
157,1,2.00E-05,-1.01E-04,5.36E-06,-8.80E-05,-7.54E-05,-1.01E-04,5.36E-06,-0.68634,5.2811,3.9795,5.2811,-0.68634,0.16602,-6.17E+06,5.17E+06,-2.97E+06,1.59E+06,-6.17E+06,5.17E+06,0.00E+00,5.37E-03,1.76E-07,1.31E-03,0,5.37E-03,0,5.15E+08,4.42E+04,2.02E+08,0,5.15E+08,-1.01E-04,5.36E-06,-0.68634,5.2811,-6.17E+06,5.17E+06,0,5.37E-03,0,5.15E+08
158,1,2.02E-05,-1.01E-04,5.32E-06,-8.75E-05,-7.47E-05,-1.01E-04,5.32E-06,-0.68937,5.2805,3.9922,5.2805,-0.68937,0.14514,-5.26E+06,9.01E+06,-1.18E+06,1.13E+06,-5.26E+06,9.01E+06,0.00E+00,5.39E-03,1.44E-07,1.31E-03,0,5.39E-03,0,5.18E+08,48748,2.02E+08,0,5.18E+08,-1.01E-04,5.32E-06,-0.68937,5.2805,-5.26E+06,9.01E+06,0,5.39E-03,0,5.18E+08
159,1,2.03E-05,-1.01E-04,5.30E-06,-8.70E-05,-7.40E-05,-1.01E-04,5.30E-06,-0.28944,5.287,3.9884,5.287,-0.28944,0.20645,-4.66E+06,9.39E+06,-8.71E+05,6.25E+05,-4.66E+06,9.39E+06,0.00E+00,5.38E-03,1.77E-07,1.31E-03,0,5.38E-03,0,5.17E+08,5.13E+04,2.01E+08,0,5.17E+08,-1.01E-04,5.30E-06,-0.28944,5.287,-4.66E+06,9.39E+06,0,5.38E-03,0,5.17E+08
160,1,2.04E-05,-1.01E-04,5.32E-06,-8.65E-05,-7.33E-05,-1.01E-04,5.32E-06,-0.18347,5.3029,4.0036,5.3029,-0.18347,0.4456,-4.63E+06,7.63E+06,-1.32E+06,5.29E+05,-4.63E+06,7.63E+06,0.00E+00,5.39E-03,1.08E-07,1.31E-03,0,5.39E-03,0,5.18E+08,3.53E+04,2.01E+08,0,5.18E+08,-1.01E-04,5.32E-06,-0.18347,5.3029,-4.63E+06,7.63E+06,0,5.39E-03,0,5.18E+08
161,1,2.05E-05,-1.01E-04,5.36E-06,-8.60E-05,-7.27E-05,-1.01E-04,5.36E-06,-0.22066,5.2993,3.9924,5.2993,-0.22066,0.58635,-5.35E+06,5.68E+06,-6.17E+05,1.51E+06,-5.35E+06,5.68E+06,0.00E+00,5.37E-03,2.14E-07,1.31E-03,0,5.37E-03,0,5.20E+08,6.90E+04,2.01E+08,0,5.20E+08,-1.01E-04,5.36E-06,-0.22066,5.2993,-5.35E+06,5.68E+06,0,5.37E-03,0,5.20E+08
162,1,2.07E-05,-1.01E-04,5.43E-06,-8.54E-05,-7.20E-05,-1.01E-04,5.43E-06,-0.14678,5.2785,3.982,5.2785,-0.14678,0.53384,-7.90E+06,3.70E+06,-1.51E+06,1.21E+06,-7.90E+06,3.70E+06,0.00E+00,5.35E-03,2.09E-07,1.31E-03,0,5.35E-03,0,5.24E+08,7.65E+04,2.01E+08,0,5.24E+08,-1.01E-04,5.43E-06,-0.14678,5.2785,-7.90E+06,3.70E+06,0,5.35E-03,0,5.24E+08
163,1,2.08E-05,-1.01E-04,5.46E-06,-8.49E-05,-7.13E-05,-1.01E-04,5.46E-06,-0.14857,5.2637,3.9894,5.2637,-0.14857,0.28454,-6.97E+06,3.80E+06,-8.40E+05,1.96E+06,-6.97E+06,3.80E+06,0.00E+00,5.35E-03,8.93E-08,1.31E-03,0,5.35E-03,0,5.25E+08,2.59E+04,2.02E+08,0,5.25E+08,-1.01E-04,5.46E-06,-0.14857,5.2637,-6.97E+06,3.80E+06,0,5.35E-03,0,5.25E+08
164,1,2.09E-05,-1.01E-04,5.45E-06,-8.44E-05,-7.06E-05,-1.01E-04,5.45E-06,-0.30881,5.2639,3.986,5.2639,-0.30881,0.13572,-8.54E+06,3.78E+06,-1.57E+06,9.02E+05,-8.54E+06,3.78E+06,0.00E+00,5.34E-03,1.86E-07,1.31E-03,0,5.34E-03,0,5.24E+08,4.75E+04,2.02E+08,0,5.24E+08,-1.01E-04,5.45E-06,-0.30881,5.2639,-8.54E+06,3.78E+06,0,5.34E-03,0,5.24E+08
165,1,2.11E-05,-1.01E-04,5.42E-06,-8.39E-05,-7.00E-05,-1.01E-04,5.42E-06,-0.50709,5.2853,3.9793,5.2853,-0.50709,0.11819,-6.14E+06,5.01E+06,-7.96E+05,8.13E+05,-6.14E+06,5.01E+06,0.00E+00,5.34E-03,1.38E-07,1.31E-03,0,5.34E-03,0,5.25E+08,2.97E+04,2.02E+08,0,5.25E+08,-1.01E-04,5.42E-06,-0.50709,5.2853,-6.14E+06,5.01E+06,0,5.34E-03,0,5.25E+08
166,1,2.12E-05,-1.01E-04,5.36E-06,-8.34E-05,-6.93E-05,-1.01E-04,5.36E-06,-0.51558,5.2795,3.9878,5.2795,-0.51558,0.2993,-4.72E+06,7.32E+06,-6.99E+05,4.32E+05,-4.72E+06,7.32E+06,0.00E+00,5.35E-03,1.05E-07,1.31E-03,0,5.35E-03,0,5.26E+08,4.11E+04,2.02E+08,0,5.26E+08,-1.01E-04,5.36E-06,-0.51558,5.2795,-4.72E+06,7.32E+06,0,5.35E-03,0,5.26E+08
167,1,2.13E-05,-1.01E-04,5.32E-06,-8.29E-05,-6.86E-05,-1.01E-04,5.32E-06,-0.37832,5.2835,3.9754,5.2835,-0.37832,0.28654,-2.85E+06,7.64E+06,-5.53E+05,5.58E+05,-2.85E+06,7.64E+06,0.00E+00,5.34E-03,1.13E-07,1.31E-03,0,5.34E-03,0,5.23E+08,3.74E+04,2.01E+08,0,5.23E+08,-1.01E-04,5.32E-06,-0.37832,5.2835,-2.85E+06,7.64E+06,0,5.34E-03,0,5.23E+08
168,1,2.14E-05,-1.01E-04,5.31E-06,-8.24E-05,-6.79E-05,-1.01E-04,5.31E-06,-0.15644,5.2883,3.9931,5.2883,-0.15644,0.49542,-3.24E+06,7.31E+06,-5.87E+05,7.13E+05,-3.24E+06,7.31E+06,0.00E+00,5.35E-03,1.27E-07,1.31E-03,0,5.35E-03,0,5.16E+08,3.42E+04,2.01E+08,0,5.16E+08,-1.01E-04,5.31E-06,-0.15644,5.2883,-3.24E+06,7.31E+06,0,5.35E-03,0,5.16E+08
169,1,2.16E-05,-1.01E-04,5.34E-06,-8.19E-05,-6.72E-05,-1.01E-04,5.34E-06,-0.14521,5.3051,3.99,5.3051,-0.14521,0.49658,-3.98E+06,4.26E+06,-1.18E+06,7.56E+05,-3.98E+06,4.26E+06,0.00E+00,5.36E-03,7.96E-08,1.31E-03,0,5.36E-03,0,5.15E+08,2.80E+04,2.01E+08,0,5.15E+08,-1.01E-04,5.34E-06,-0.14521,5.3051,-3.98E+06,4.26E+06,0,5.36E-03,0,5.15E+08
170,1,2.17E-05,-1.01E-04,5.38E-06,-8.13E-05,-6.66E-05,-1.01E-04,5.38E-06,-0.16528,5.2943,3.995,5.2943,-0.16528,0.44516,-4.94E+06,3.68E+06,-5.74E+05,1.52E+06,-4.94E+06,3.68E+06,0.00E+00,5.37E-03,1.47E-07,1.31E-03,0,5.37E-03,0,5.16E+08,4.02E+04,2.01E+08,0,5.16E+08,-1.01E-04,5.38E-06,-0.16528,5.2943,-4.94E+06,3.68E+06,0,5.37E-03,0,5.16E+08
171,1,2.18E-05,-1.01E-04,5.40E-06,-8.08E-05,-6.59E-05,-1.01E-04,5.40E-06,-0.28115,5.2719,4.0009,5.2719,-0.28115,0.24543,-5.69E+06,3.01E+06,-1.13E+06,6.91E+05,-5.69E+06,3.01E+06,0.00E+00,5.37E-03,1.64E-07,1.31E-03,0,5.37E-03,0,5.15E+08,3.79E+04,2.01E+08,0,5.15E+08,-1.01E-04,5.40E-06,-0.28115,5.2719,-5.69E+06,3.01E+06,0,5.37E-03,0,5.15E+08
172,1,2.20E-05,-1.01E-04,5.40E-06,-8.03E-05,-6.52E-05,-1.01E-04,5.40E-06,-0.4052,5.2644,3.9897,5.2644,-0.4052,0.12655,-4.71E+06,4.90E+06,-4.00E+05,9.36E+05,-4.71E+06,4.90E+06,0.00E+00,5.37E-03,9.35E-08,1.31E-03,0,5.37E-03,0,5.16E+08,3.25E+04,2.01E+08,0,5.16E+08,-1.01E-04,5.40E-06,-0.4052,5.2644,-4.71E+06,4.90E+06,0,5.37E-03,0,5.16E+08
173,1,2.21E-05,-1.01E-04,5.39E-06,-7.98E-05,-6.45E-05,-1.01E-04,5.39E-06,-0.44079,5.2797,3.973,5.2797,-0.44079,0.15796,-4.39E+06,5.65E+06,-3.90E+05,4.79E+05,-4.39E+06,5.65E+06,0,5.37E-03,9.07E-08,1.31E-03,0,5.37E-03,0,5.20E+08,24183,2.01E+08,0,5.20E+08,-1.01E-04,5.39E-06,-0.44079,5.2797,-4.39E+06,5.65E+06,0,5.37E-03,0,5.20E+08
174,1,2.22E-05,-1.01E-04,5.36E-06,-7.93E-05,-6.39E-05,-1.01E-04,5.36E-06,-0.45815,5.2766,3.9839,5.2766,-0.45815,0.16067,-2.75E+06,5.41E+06,-5.50E+05,3.19E+05,-2.75E+06,5.41E+06,0.00E+00,5.36E-03,1.15E-07,1.31E-03,0,5.36E-03,0,5.23E+08,2.76E+04,2.01E+08,0,5.23E+08,-1.01E-04,5.36E-06,-0.45815,5.2766,-2.75E+06,5.41E+06,0,5.36E-03,0,5.23E+08
175,1,2.23E-05,-1.01E-04,5.37E-06,-7.88E-05,-6.32E-05,-1.01E-04,5.37E-06,-0.36828,5.2727,3.9675,5.2727,-0.36828,0.31395,-3.69E+06,6.85E+06,-6.49E+05,7.04E+05,-3.69E+06,6.85E+06,0,5.37E-03,2.13E-07,1.31E-03,0,5.37E-03,0,5.27E+08,73456,2.01E+08,0,5.27E+08,-1.01E-04,5.37E-06,-0.36828,5.2727,-3.69E+06,6.85E+06,0,5.37E-03,0,5.27E+08
176,1,2.25E-05,-1.01E-04,5.38E-06,-7.83E-05,-6.25E-05,-1.01E-04,5.38E-06,-0.11101,5.283,3.9867,5.283,-0.11101,0.40791,-3.47E+06,5.43E+06,-9.19E+05,4.46E+05,-3.47E+06,5.43E+06,0,5.36E-03,1.41E-07,1.31E-03,0,5.36E-03,0,5.27E+08,47488,2.01E+08,0,5.27E+08,-1.01E-04,5.38E-06,-0.11101,5.283,-3.47E+06,5.43E+06,0,5.36E-03,0,5.27E+08
177,1,2.26E-05,-1.01E-04,5.40E-06,-7.78E-05,-6.18E-05,-1.01E-04,5.40E-06,-0.13678,5.2968,4.0027,5.2968,-0.13678,0.37698,-5.72E+06,4.73E+06,-5.25E+05,8.83E+05,-5.72E+06,4.73E+06,0,5.36E-03,1.06E-07,1.31E-03,0,5.36E-03,0,5.27E+08,24352,2.02E+08,0,5.27E+08,-1.01E-04,5.40E-06,-0.13678,5.2968,-5.72E+06,4.73E+06,0,5.36E-03,0,5.27E+08
178,1,2.27E-05,-1.01E-04,5.42E-06,-7.72E-05,-6.11E-05,-1.01E-04,5.42E-06,-0.17036,5.2953,4.0001,5.2953,-0.17036,0.3842,-5.59E+06,3.68E+06,-7.69E+05,5.21E+05,-5.59E+06,3.68E+06,0,5.34E-03,1.46E-07,1.31E-03,0,5.34E-03,0,5.24E+08,32911,2.02E+08,0,5.24E+08,-1.01E-04,5.42E-06,-0.17036,5.2953,-5.59E+06,3.68E+06,0,5.34E-03,0,5.24E+08
179,1,2.29E-05,-1.01E-04,5.41E-06,-7.67E-05,-6.05E-05,-1.01E-04,5.41E-06,-0.303,5.2905,3.9982,5.2905,-0.303,0.4427,-5.28E+06,3.29E+06,-3.23E+05,8.40E+05,-5.28E+06,3.29E+06,0,5.34E-03,9.86E-08,1.31E-03,0,5.34E-03,0,5.20E+08,34852,2.01E+08,0,5.20E+08,-1.01E-04,5.41E-06,-0.303,5.2905,-5.28E+06,3.29E+06,0,5.34E-03,0,5.20E+08
180,1,2.30E-05,-1.01E-04,5.38E-06,-7.62E-05,-5.98E-05,-1.01E-04,5.38E-06,-0.48002,5.2764,3.994,5.2764,-0.48002,0.26359,-3.83E+06,3.18E+06,-3.53E+05,4.52E+05,-3.83E+06,3.18E+06,0,5.34E-03,1.30E-07,1.31E-03,0,5.34E-03,0,5.17E+08,52992,2.01E+08,0,5.17E+08,-1.01E-04,5.38E-06,-0.48002,5.2764,-3.83E+06,3.18E+06,0,5.34E-03,0,5.17E+08
181,1,2.31E-05,-1.01E-04,5.35E-06,-7.57E-05,-5.91E-05,-1.01E-04,5.35E-06,-0.43039,5.267,3.9784,5.267,-0.43039,0.23803,-3.89E+06,3.67E+06,-3.66E+05,2.86E+05,-3.89E+06,3.67E+06,0,5.36E-03,6.99E-08,1.31E-03,0,5.36E-03,0,5.15E+08,24863,2.01E+08,0,5.15E+08,-1.01E-04,5.35E-06,-0.43039,5.267,-3.89E+06,3.67E+06,0,5.36E-03,0,5.15E+08
182,1,2.32E-05,-1.01E-04,5.32E-06,-7.52E-05,-5.84E-05,-1.01E-04,5.32E-06,-0.3333,5.2667,3.9859,5.2667,-0.3333,0.19439,-4.44E+06,5.14E+06,-4.24E+05,2.93E+05,-4.44E+06,5.14E+06,0,5.38E-03,1.65E-07,1.31E-03,0,5.38E-03,0,5.17E+08,35029,2.01E+08,0,5.17E+08,-1.01E-04,5.32E-06,-0.3333,5.2667,-4.44E+06,5.14E+06,0,5.38E-03,0,5.17E+08
183,1,2.34E-05,-1.01E-04,5.32E-06,-7.47E-05,-5.78E-05,-1.01E-04,5.32E-06,-0.35506,5.2751,3.9692,5.2751,-0.35506,0.33944,-2.64E+06,5.04E+06,-7.71E+05,3.00E+05,-2.64E+06,5.04E+06,0,5.38E-03,1.53E-07,1.31E-03,0,5.38E-03,0,5.17E+08,35101,2.01E+08,0,5.17E+08,-1.01E-04,5.32E-06,-0.35506,5.2751,-2.64E+06,5.04E+06,0,5.38E-03,0,5.17E+08
184,1,2.35E-05,-1.01E-04,5.35E-06,-7.42E-05,-5.71E-05,-1.01E-04,5.35E-06,-0.2994,5.2818,3.9768,5.2818,-0.2994,0.49703,-3.68E+06,3.85E+06,-3.47E+05,7.74E+05,-3.68E+06,3.85E+06,0,5.38E-03,1.39E-07,1.31E-03,0,5.38E-03,0,5.17E+08,49019,2.02E+08,0,5.17E+08,-1.01E-04,5.35E-06,-0.2994,5.2818,-3.68E+06,3.85E+06,0,5.38E-03,0,5.17E+08
185,1,2.36E-05,-1.01E-04,5.38E-06,-7.37E-05,-5.64E-05,-1.01E-04,5.38E-06,-0.32315,5.287,3.9853,5.287,-0.32315,0.36881,-3.78E+06,3.41E+06,-3.98E+05,4.03E+05,-3.78E+06,3.41E+06,0,5.37E-03,1.48E-07,1.31E-03,0,5.37E-03,0,5.21E+08,52766,2.02E+08,0,5.21E+08,-1.01E-04,5.38E-06,-0.32315,5.287,-3.78E+06,3.41E+06,0,5.37E-03,0,5.21E+08
186,1,2.37E-05,-1.01E-04,5.41E-06,-7.32E-05,-5.57E-05,-1.01E-04,5.41E-06,-0.32623,5.2912,4.0053,5.2912,-0.32623,0.48017,-5.20E+06,4.12E+06,-4.50E+05,3.62E+05,-5.20E+06,4.12E+06,0,5.36E-03,1.25E-07,1.31E-03,0,5.36E-03,0,5.26E+08,44671,2.02E+08,0,5.26E+08,-1.01E-04,5.41E-06,-0.32623,5.2912,-5.20E+06,4.12E+06,0,5.36E-03,0,5.26E+08
187,1,2.39E-05,-1.01E-04,5.44E-06,-7.26E-05,-5.51E-05,-1.01E-04,5.44E-06,-0.45055,5.2996,4.0042,5.2996,-0.45055,0.47799,-4.54E+06,4.89E+06,-3.07E+05,5.31E+05,-4.54E+06,4.89E+06,0,5.37E-03,2.16E-07,1.31E-03,0,5.37E-03,0,5.28E+08,64907,2.01E+08,0,5.28E+08,-1.01E-04,5.44E-06,-0.45055,5.2996,-4.54E+06,4.89E+06,0,5.37E-03,0,5.28E+08
188,1,2.40E-05,-1.01E-04,5.43E-06,-7.21E-05,-5.44E-05,-1.01E-04,5.43E-06,-0.50313,5.2886,4.0042,5.2886,-0.50313,0.39105,-4.89E+06,4.19E+06,-3.82E+05,3.23E+05,-4.89E+06,4.19E+06,0,5.37E-03,1.53E-07,1.31E-03,0,5.37E-03,0,5.28E+08,59896,2.01E+08,0,5.28E+08,-1.01E-04,5.43E-06,-0.50313,5.2886,-4.89E+06,4.19E+06,0,5.37E-03,0,5.28E+08
189,1,2.41E-05,-1.01E-04,5.41E-06,-7.16E-05,-5.37E-05,-1.01E-04,5.41E-06,-0.41668,5.2747,3.9844,5.2747,-0.41668,0.25836,-4.30E+06,5.33E+06,-3.36E+05,4.72E+05,-4.30E+06,5.33E+06,0,5.35E-03,1.13E-07,1.31E-03,0,5.35E-03,0,5.26E+08,27445,2.01E+08,0,5.26E+08,-1.01E-04,5.41E-06,-0.41668,5.2747,-4.30E+06,5.33E+06,0,5.35E-03,0,5.26E+08
190,1,2.43E-05,-1.01E-04,5.37E-06,-7.11E-05,-5.30E-05,-1.01E-04,5.37E-06,-0.49777,5.2606,3.9682,5.2606,-0.49777,0.35888,-3.42E+06,4.45E+06,-3.59E+05,3.19E+05,-3.42E+06,4.45E+06,0,5.34E-03,1.79E-07,1.31E-03,0,5.34E-03,0,5.22E+08,69507,2.01E+08,0,5.22E+08,-1.01E-04,5.37E-06,-0.49777,5.2606,-3.42E+06,4.45E+06,0,5.34E-03,0,5.22E+08
191,1,2.44E-05,-1.01E-04,5.35E-06,-7.06E-05,-5.23E-05,-1.01E-04,5.35E-06,-0.5303,5.2653,3.9679,5.2653,-0.5303,0.45447,-2.46E+06,3.84E+06,-4.26E+05,3.12E+05,-2.46E+06,3.84E+06,0,5.35E-03,4.94E-08,1.31E-03,0,5.35E-03,0,5.18E+08,14784,2.01E+08,0,5.18E+08,-1.01E-04,5.35E-06,-0.5303,5.2653,-2.46E+06,3.84E+06,0,5.35E-03,0,5.18E+08
192,1,2.45E-05,-1.01E-04,5.32E-06,-7.01E-05,-5.17E-05,-1.01E-04,5.32E-06,-0.39967,5.276,3.9785,5.276,-0.39967,0.37493,-3.00E+06,4.70E+06,-4.72E+05,3.63E+05,-3.00E+06,4.70E+06,0,5.37E-03,1.73E-07,1.31E-03,0,5.37E-03,0,5.15E+08,70045,2.02E+08,0,5.15E+08,-1.01E-04,5.32E-06,-0.39967,5.276,-3.00E+06,4.70E+06,0,5.37E-03,0,5.15E+08
193,1,2.46E-05,-1.01E-04,5.33E-06,-6.96E-05,-5.10E-05,-1.01E-04,5.33E-06,-0.24369,5.2827,3.9935,5.2827,-0.24369,0.34187,-3.76E+06,4.29E+06,-2.52E+05,2.90E+05,-3.76E+06,4.29E+06,0,5.38E-03,9.26E-08,1.31E-03,0,5.38E-03,0,5.16E+08,27826,2.02E+08,0,5.16E+08,-1.01E-04,5.33E-06,-0.24369,5.2827,-3.76E+06,4.29E+06,0,5.38E-03,0,5.16E+08
194,1,2.48E-05,-1.01E-04,5.34E-06,-6.91E-05,-5.03E-05,-1.01E-04,5.34E-06,-0.19226,5.2921,4.003,5.2921,-0.19226,0.2675,-3.70E+06,3.36E+06,-2.86E+05,3.24E+05,-3.70E+06,3.36E+06,0,5.40E-03,1.17E-07,1.31E-03,0,5.40E-03,0,5.19E+08,26410,2.02E+08,0,5.19E+08,-1.01E-04,5.34E-06,-0.19226,5.2921,-3.70E+06,3.36E+06,0,5.40E-03,0,5.19E+08
195,1,2.49E-05,-1.01E-04,5.36E-06,-6.85E-05,-4.96E-05,-1.01E-04,5.36E-06,-0.18166,5.3012,3.9923,5.3012,-0.18166,0.35362,-4.67E+06,3.17E+06,-3.23E+05,3.67E+05,-4.67E+06,3.17E+06,0,5.38E-03,1.91E-07,1.31E-03,0,5.38E-03,0,5.17E+08,70217,2.01E+08,0,5.17E+08,-1.01E-04,5.36E-06,-0.18166,5.3012,-4.67E+06,3.17E+06,0,5.38E-03,0,5.17E+08
196,1,2.50E-05,-1.01E-04,5.39E-06,-6.80E-05,-4.90E-05,-1.01E-04,5.39E-06,-0.299,5.3001,4.0014,5.3001,-0.299,0.48236,-3.61E+06,3.34E+06,-3.42E+05,3.10E+05,-3.61E+06,3.34E+06,0,5.36E-03,1.52E-07,1.31E-03,0,5.36E-03,0,5.19E+08,62151,2.01E+08,0,5.19E+08,-1.01E-04,5.39E-06,-0.299,5.3001,-3.61E+06,3.34E+06,0,5.36E-03,0,5.19E+08
197,1,2.52E-05,-1.01E-04,5.42E-06,-6.75E-05,-4.83E-05,-1.01E-04,5.42E-06,-0.33424,5.2819,3.9812,5.2819,-0.33424,0.32502,-5.01E+06,3.02E+06,-5.88E+05,2.55E+05,-5.01E+06,3.02E+06,0,5.35E-03,1.27E-07,1.31E-03,0,5.35E-03,0,5.22E+08,49620,2.01E+08,0,5.22E+08,-1.01E-04,5.42E-06,-0.33424,5.2819,-5.01E+06,3.02E+06,0,5.35E-03,0,5.22E+08
198,1,2.53E-05,-1.01E-04,5.42E-06,-6.70E-05,-4.76E-05,-1.01E-04,5.42E-06,-0.37744,5.2604,3.9744,5.2604,-0.37744,0.19756,-4.76E+06,2.29E+06,-3.23E+05,5.57E+05,-4.76E+06,2.29E+06,0,5.35E-03,1.51E-07,1.31E-03,0,5.35E-03,0,5.25E+08,63992,2.01E+08,0,5.25E+08,-1.01E-04,5.42E-06,-0.37744,5.2604,-4.76E+06,2.29E+06,0,5.35E-03,0,5.25E+08
199,1,2.54E-05,-1.01E-04,5.41E-06,-6.65E-05,-4.69E-05,-1.01E-04,5.41E-06,-0.26985,5.2569,3.9834,5.2569,-0.26985,0.11339,-4.78E+06,4.21E+06,-5.10E+05,2.83E+05,-4.78E+06,4.21E+06,0,5.36E-03,1.05E-07,1.31E-03,0,5.36E-03,0,5.27E+08,31694,2.02E+08,0,5.27E+08,-1.01E-04,5.41E-06,-0.26985,5.2569,-4.78E+06,4.21E+06,0,5.36E-03,0,5.27E+08
200,1,2.55E-05,-1.01E-04,5.39E-06,-6.60E-05,-4.62E-05,-1.01E-04,5.39E-06,-0.22553,5.2688,3.9814,5.2688,-0.22553,0.11875,-2.86E+06,3.65E+06,-2.40E+05,3.09E+05,-2.86E+06,3.65E+06,0,5.36E-03,1.80E-07,1.31E-03,0,5.36E-03,0,5.28E+08,73705,2.02E+08,0,5.28E+08,-1.01E-04,5.39E-06,-0.22553,5.2688,-2.86E+06,3.65E+06,0,5.36E-03,0,5.28E+08
201,1,2.57E-05,-1.01E-04,5.37E-06,-6.55E-05,-4.56E-05,-1.01E-04,5.37E-06,-0.21388,5.2884,3.9843,5.2884,-0.21388,0.32032,-2.22E+06,3.58E+06,-2.05E+05,3.74E+05,-2.22E+06,3.58E+06,0,5.35E-03,2.17E-07,1.31E-03,0,5.35E-03,0,5.26E+08,73155,2.02E+08,0,5.26E+08,-1.01E-04,5.37E-06,-0.21388,5.2884,-2.22E+06,3.58E+06,0,5.35E-03,0,5.26E+08
202,1,6.00E-05,,,,,,,,,,,,,,,,,,,,,,,,,,,,,,,,,,,,,,,,
